"PointID","x","y","Displacement_1","Displacement_2","Velocity_1","Velocity_2","Acceleration_1","Acceleration_2","Sxx","Syy","Sxy","Von_Mises_Stress"
0,0.000000000000000e+00,5.000000000000000e-01,0.000000000000000e+00,0.000000000000000e+00,0.000000000000000e+00,0.000000000000000e+00,0.000000000000000e+00,0.000000000000000e+00,7.699977826238620e+04,2.308591751301547e+04,-1.769941934860867e+04,6.449637324698304e+04,
1,0.000000000000000e+00,0.000000000000000e+00,0.000000000000000e+00,0.000000000000000e+00,0.000000000000000e+00,0.000000000000000e+00,0.000000000000000e+00,0.000000000000000e+00,-7.627553106889603e+04,-2.289905823533247e+04,-1.690394931806528e+04,6.318244900558246e+04,
2,6.000000000000000e+00,0.000000000000000e+00,0.000000000000000e+00,0.000000000000000e+00,0.000000000000000e+00,0.000000000000000e+00,0.000000000000000e+00,0.000000000000000e+00,-7.627553106901527e+04,-2.289905823538236e+04,1.690394931814098e+04,6.318244900572205e+04,
3,6.000000000000000e+00,5.000000000000000e-01,0.000000000000000e+00,0.000000000000000e+00,0.000000000000000e+00,0.000000000000000e+00,0.000000000000000e+00,0.000000000000000e+00,7.699977826220123e+04,2.308591751286000e+04,1.769941934864358e+04,6.449637324699669e+04,
4,0.000000000000000e+00,4.583333333333912e-01,0.000000000000000e+00,0.000000000000000e+00,0.000000000000000e+00,0.000000000000000e+00,0.000000000000000e+00,0.000000000000000e+00,5.752902595640880e+04,1.725500015274298e+04,-1.469824233810374e+04,4.986131231478813e+04,
5,0.000000000000000e+00,4.166666666667823e-01,0.000000000000000e+00,0.000000000000000e+00,0.000000000000000e+00,0.000000000000000e+00,0.000000000000000e+00,0.000000000000000e+00,4.328152829461523e+04,1.298569676172822e+04,-1.268762475830581e+04,3.951886506846280e+04,
6,0.000000000000000e+00,3.750000000001735e-01,0.000000000000000e+00,0.000000000000000e+00,0.000000000000000e+00,0.000000000000000e+00,0.000000000000000e+00,0.000000000000000e+00,3.124901783029312e+04,9.379449258417928e+03,-1.135643397737850e+04,3.153018236944053e+04,
7,0.000000000000000e+00,3.333333333336803e-01,0.000000000000000e+00,0.000000000000000e+00,0.000000000000000e+00,0.000000000000000e+00,0.000000000000000e+00,0.000000000000000e+00,2.036159864610183e+04,6.115601314707076e+03,-1.050360067897565e+04,2.538209898451303e+04,
8,0.000000000000000e+00,2.916666666671871e-01,0.000000000000000e+00,0.000000000000000e+00,0.000000000000000e+00,0.000000000000000e+00,0.000000000000000e+00,0.000000000000000e+00,1.008903171372120e+04,3.035196400794873e+03,-1.001180820779374e+04,2.122973874027824e+04,
9,0.000000000000000e+00,2.500000000006939e-01,0.000000000000000e+00,0.000000000000000e+00,0.000000000000000e+00,0.000000000000000e+00,0.000000000000000e+00,0.000000000000000e+00,9.189008541304844e+01,3.645677018263638e+01,-9.819711508629051e+03,1.963950124884145e+04,
10,0.000000000000000e+00,2.083333333339694e-01,0.000000000000000e+00,0.000000000000000e+00,0.000000000000000e+00,0.000000000000000e+00,0.000000000000000e+00,0.000000000000000e+00,-9.901641691882556e+03,-2.962168238482998e+03,-9.907243088397816e+03,2.099452676915730e+04,
11,0.000000000000000e+00,1.666666666672449e-01,0.000000000000000e+00,0.000000000000000e+00,0.000000000000000e+00,0.000000000000000e+00,0.000000000000000e+00,0.000000000000000e+00,-2.016196715862187e+04,-6.041844448677471e+03,-1.029101096876514e+04,2.495991771582722e+04,
12,0.000000000000000e+00,1.250000000005204e-01,0.000000000000000e+00,0.000000000000000e+00,0.000000000000000e+00,0.000000000000000e+00,0.000000000000000e+00,0.000000000000000e+00,-3.102318564403368e+04,-9.302876547702142e+03,-1.102826735594546e+04,3.095581610516885e+04,
13,0.000000000000000e+00,8.333333333368032e-02,0.000000000000000e+00,0.000000000000000e+00,0.000000000000000e+00,0.000000000000000e+00,0.000000000000000e+00,0.000000000000000e+00,-4.300154194657149e+04,-1.290029448043027e+04,-1.223071112589941e+04,3.878719218503284e+04,
14,0.000000000000000e+00,4.166666666684016e-02,0.000000000000000e+00,0.000000000000000e+00,0.000000000000000e+00,0.000000000000000e+00,0.000000000000000e+00,0.000000000000000e+00,-5.712804897395849e+04,-1.714378135495707e+04,-1.409077609709559e+04,4.891770171524666e+04,
15,1.153846153841516e-01,0.000000000000000e+00,-2.666893367165790e-04,-1.691970351894927e-04,-7.393987055674237e-05,-4.550246298832622e-05,-1.132550573027279e-04,-8.547482490990766e-05,-6.196480925716946e+04,1.740884136027857e+03,-9.349245155563029e+02,6.373312879584068e+04,
16,2.307692307683032e-01,0.000000000000000e+00,-4.807847164437673e-04,-3.902450529967924e-04,-1.346121252321622e-04,-1.060105080969785e-04,-1.926934651433544e-04,-1.875146755988091e-04,-5.329336405437692e+04,-2.038545001500533e+03,-9.603251956772526e+02,5.129079229324607e+04,
17,3.461538461524548e-01,0.000000000000000e+00,-6.723617359282720e-04,-7.041797093320612e-04,-1.896865054576839e-04,-1.935492969053620e-04,-2.575380113788233e-04,-3.160435315900293e-04,-4.658122265759928e+04,-1.104100108189665e+03,-7.100335820254918e+02,4.549928863316916e+04,
18,4.615384615366064e-01,0.000000000000000e+00,-8.374825201517405e-04,-1.098203290403457e-03,-2.377696742949175e-04,-3.047123327955007e-04,-3.131525055327933e-04,-4.652632837450347e-04,-3.972769441218073e+04,-1.120837302571984e+03,-6.871379739032070e+02,3.863130919684792e+04,
19,5.769230769207579e-01,0.000000000000000e+00,-9.768269791077542e-04,-1.560786258626583e-03,-2.788213613666059e-04,-4.363272030506457e-04,-3.627797888635549e-04,-6.312998916878354e-04,-3.303750853062523e+04,-9.000315226813811e+02,-6.571607745405483e+02,3.216434158459487e+04,
20,6.923076923049095e-01,0.000000000000000e+00,-1.091512676370940e-03,-2.079940092088803e-03,-3.129659070706358e-04,-5.849914666357086e-04,-4.117605101085384e-04,-8.141538792773015e-04,-2.666989245611904e+04,-7.336915221500853e+02,-6.325499303965960e+02,2.596703673015062e+04,
21,8.076923076890612e-01,0.000000000000000e+00,-1.182731755163866e-03,-2.644495080560321e-03,-3.403870635892162e-04,-7.474502437144033e-04,-4.648419575605479e-04,-1.015081951996498e-03,-2.061897106409297e+04,-5.652134478442376e+02,-6.146939308600907e+02,2.009140585040775e+04,
22,9.230769230732128e-01,0.000000000000000e+00,-1.251663596592303e-03,-3.243818104982602e-03,-3.613053884431683e-04,-9.205465807850435e-04,-5.229239573835966e-04,-1.236964238258843e-03,-1.488639502140047e+04,-4.087902175002316e+02,-6.004703510093691e+02,1.452732939764500e+04,
23,1.038461538457364e+00,0.000000000000000e+00,-1.299463908864228e-03,-3.867837621595131e-03,-3.759714384026104e-04,-1.101245886378844e-03,-5.877474676659595e-04,-1.486953640398613e-03,-9.468327924963236e+03,-2.607360392551500e+02,-5.884524018340800e+02,9.282502531680484e+03,
24,1.153846153841516e+00,0.000000000000000e+00,-1.327281555968270e-03,-4.507023037238703e-03,-3.846674362180340e-04,-1.286649545485482e-03,-6.576485283916414e-04,-1.771220896002624e-03,-4.364257428261956e+03,-1.216839989456891e+02,-5.769420908647123e+02,4.396689437290946e+03,
25,1.269230769225667e+00,0.000000000000000e+00,-1.336263223255917e-03,-5.152389797149137e-03,-3.877024269755842e-04,-1.474016764949895e-03,-7.315676106559280e-04,-2.095520032339043e-03,4.262719049634345e+02,8.614796291646201e+00,-5.646809947878660e+02,1.204116258474460e+03,
26,1.384615384609819e+00,0.000000000000000e+00,-1.327556251897518e-03,-5.795499977775531e-03,-3.854028054292899e-04,-1.660777377239465e-03,-8.046703652941394e-04,-2.460655410370335e-03,4.903620559225551e+03,1.301577883971007e+02,-5.506162077270287e+02,4.898842685505630e+03,
27,1.499999999993971e+00,0.000000000000000e+00,-1.302310118450506e-03,-6.428463168461276e-03,-3.781104189781566e-04,-1.844530793949101e-03,-8.717675733758501e-04,-2.864526500025375e-03,9.068256004887888e+03,2.430023728256764e+02,-5.339242758676169e+02,8.889623287837921e+03,
28,1.615384615378385e+00,0.000000000000000e+00,-1.261677612571316e-03,-7.043936584825147e-03,-3.661813532009960e-04,-2.023048634201871e-03,-9.296452626017967e-04,-3.301312399949904e-03,1.292070949038019e+04,3.471957073367716e+02,-5.139793394416208e+02,1.261546463265916e+04,
29,1.730769230762799e+00,0.000000000000000e+00,-1.206815721095236e-03,-7.635124965545756e-03,-3.499846639146298e-04,-2.194285283189616e-03,-9.744600654757399e-04,-3.764899008985484e-03,1.646156338473178e+04,4.427898338143631e+02,-4.903405232680919e+02,1.604876448174770e+04,
30,1.846153846147213e+00,0.000000000000000e+00,-1.138886246478585e-03,-8.195780286897951e-03,-3.298999291506033e-04,-2.356378023523968e-03,-1.003898791549069e-03,-4.249589646421043e-03,1.969143517967964e+04,5.298366702938248e+02,-4.627360890532159e+02,1.918393484630683e+04,
31,1.961538461531627e+00,0.000000000000000e+00,-1.059056161207361e-03,-8.720201354905579e-03,-3.063154277343018e-04,-2.507649726419996e-03,-1.014798973698086e-03,-4.749403332976073e-03,2.261096789769219e+04,6.083885668304837e+02,-4.310486876228468e+02,2.201946205281292e+04,
32,2.076923076916041e+00,0.000000000000000e+00,-9.684977128914316e-04,-9.203233283168917e-03,-2.796265282836724e-04,-2.646614060961056e-03,-1.001867149578732e-03,-5.255711388735059e-03,2.522082162369699e+04,6.784975254992306e+02,-3.953002092856486e+02,2.455505490042373e+04,
33,2.192307692300456e+00,0.000000000000000e+00,-8.683883081887616e-04,-9.640266852225120e-03,-2.502305053194956e-04,-2.771975568641857e-03,-9.613557297518437e-04,-5.753616331621323e-03,2.752166207936603e+04,7.402149730996859e+02,-3.556368582600633e+02,2.679089060493425e+04,
34,2.307692307684870e+00,0.000000000000000e+00,-7.599102254858324e-04,-1.002723775866466e-02,-2.185220269651410e-04,-2.882631051430377e-03,-8.912940445277938e-04,-6.225542047999018e-03,2.951414378127619e+04,7.935903634404999e+02,-3.123143466695840e+02,2.872734498054591e+04,
35,2.423076923069284e+00,0.000000000000000e+00,-6.442501990746580e-04,-1.036062579896452e-02,-1.848867012850943e-04,-2.977668168440815e-03,-7.918506809080880e-04,-6.655576982130238e-03,3.119888944547029e+04,8.386691710559458e+02,-2.656830404515340e+02,3.036486991612007e+04,
36,2.538461538453697e+00,0.000000000000000e+00,-5.225989127013466e-04,-1.063745404093460e-02,-1.496931148550265e-04,-3.056347997325292e-03,-6.664713776666433e-04,-7.029343741740432e-03,3.257646773222274e+04,8.754920833262953e+02,-2.161734751234460e+02,3.170392374734259e+04,
37,2.653846153838112e+00,0.000000000000000e+00,-3.961504324287011e-04,-1.085528803557553e-02,-1.132901039358581e-04,-3.118094014304416e-03,-5.201303130959769e-04,-7.333232691555449e-03,3.364737220308762e+04,9.040941392389985e+02,-1.642825309343150e+02,3.274492652864549e+04,
38,2.769230769222526e+00,0.000000000000000e+00,-2.661015906966739e-04,-1.101223511415652e-02,-7.600447205978068e-05,-3.162484481907596e-03,-3.573897138458694e-04,-7.558445690626216e-03,3.441200430109059e+04,9.245032667730837e+02,-1.105597859875229e+02,3.348823105791833e+04,
39,2.884615384606940e+00,0.000000000000000e+00,-1.336513277783305e-04,-1.110694381329534e-02,-3.814334997859035e-05,-3.189229537002549e-03,-1.822652356636817e-04,-7.699018554404680e-03,3.487066108515883e+04,9.367399543689374e+02,-5.559397732128400e+01,3.393410328963956e+04,
40,2.999999999991354e+00,0.000000000000000e+00,-1.007384366203062e-14,-1.113860344480297e-02,2.414744529941332e-13,-3.198161908155574e-03,8.154107569664603e-10,-7.747259377590967e-03,3.502352594443032e+04,9.408173038945963e+02,6.506115823867731e-08,3.408270864053573e+04,
41,3.115384615376196e+00,0.000000000000000e+00,1.336513277591247e-04,-1.110694381330428e-02,3.814335019141325e-05,-3.189229537262608e-03,1.822644944599685e-04,-7.699018460217110e-03,3.487066108535635e+04,9.367399544469822e+02,5.559397698203134e+01,3.393410328975681e+04,
42,3.230769230761037e+00,0.000000000000000e+00,2.661015906777346e-04,-1.101223511417304e-02,7.600447214051341e-05,-3.162484481972744e-03,3.573899489103931e-04,-7.558445769978632e-03,3.441200430117840e+04,9.245032667728237e+02,1.105597856919180e+02,3.348823105800251e+04,
43,3.346153846145878e+00,0.000000000000000e+00,3.961504324101353e-04,-1.085528803559929e-02,1.132901035809150e-04,-3.118094014513005e-03,5.201308598641115e-04,-7.333232730956353e-03,3.364737220331520e+04,9.040941392975843e+02,1.642825310191074e+02,3.274492652881618e+04,
44,3.461538461530719e+00,0.000000000000000e+00,5.225989126842705e-04,-1.063745404096598e-02,1.496931152946640e-04,-3.056347997351292e-03,6.664723596240457e-04,-7.029343854926339e-03,3.257646773220597e+04,8.754920832754768e+02,2.161734746919931e+02,3.170392374736486e+04,
45,3.576923076915560e+00,0.000000000000000e+00,6.442501990589219e-04,-1.036062579900255e-02,1.848867013230041e-04,-2.977668168513768e-03,7.918508569923080e-04,-6.655577233090685e-03,3.119888944562518e+04,8.386691710039977e+02,2.656830401605139e+02,3.036486991631670e+04,
46,3.692307692300401e+00,0.000000000000000e+00,7.599102254707004e-04,-1.002723775870933e-02,2.185220270765250e-04,-2.882631051542808e-03,8.912942024251997e-04,-6.225541773338043e-03,2.951414378143495e+04,7.935903634684913e+02,3.123143466442220e+02,2.872734498067554e+04,
47,3.807692307685242e+00,0.000000000000000e+00,8.683883081750389e-04,-9.640266852274971e-03,2.502305050662607e-04,-2.771975568470909e-03,9.613562029772549e-04,-5.753616261048760e-03,2.752166207951475e+04,7.402149731027854e+02,3.556368581632069e+02,2.679089060507468e+04,
48,3.923076923070084e+00,0.000000000000000e+00,9.684977128788600e-04,-9.203233283223027e-03,2.796265287198700e-04,-2.646614060704711e-03,1.001868473651309e-03,-5.255711636292606e-03,2.522082162414381e+04,6.784975255920045e+02,3.953002093972741e+02,2.455505490078478e+04,
49,4.038461538454925e+00,0.000000000000000e+00,1.059056161196818e-03,-8.720201354963703e-03,3.063154282706852e-04,-2.507649726622583e-03,1.014799363301146e-03,-4.749403390427370e-03,2.261096789800820e+04,6.083885668222161e+02,4.310486874974865e+02,2.201946205312712e+04,
50,4.153846153839766e+00,0.000000000000000e+00,1.138886246469745e-03,-8.195780286959010e-03,3.298999298269201e-04,-2.356378023540155e-03,1.003898439327523e-03,-4.249589540455376e-03,1.969143518003363e+04,5.298366703429936e+02,4.627360889536473e+02,1.918393484660170e+04,
51,4.269230769224607e+00,0.000000000000000e+00,1.206815721088736e-03,-7.635124965608154e-03,3.499846639884436e-04,-2.194285283058019e-03,9.744603052798747e-04,-3.764899171328781e-03,1.646156338519312e+04,4.427898338960663e+02,4.903405228468862e+02,1.604876448207516e+04,
52,4.384615384609448e+00,0.000000000000000e+00,1.261677612565797e-03,-7.043936584888079e-03,3.661813533419795e-04,-2.023048634156316e-03,9.296453073286229e-04,-3.301312172204386e-03,1.292070949088515e+04,3.471957074756990e+02,5.139793395343993e+02,1.261546463303910e+04,
53,4.499999999994289e+00,0.000000000000000e+00,1.302310118446082e-03,-6.428463168525167e-03,3.781104188439418e-04,-1.844530794105883e-03,8.717676717731364e-04,-2.864526243072683e-03,9.068256005267798e+03,2.430023729141118e+02,5.339242757858448e+02,8.889623288107638e+03,
54,4.615384615379344e+00,0.000000000000000e+00,1.327556251895088e-03,-5.795499977835629e-03,3.854028057368119e-04,-1.660777377225907e-03,8.046707132096503e-04,-2.460655665930371e-03,4.903620559463414e+03,1.301577884045330e+02,5.506162079449036e+02,4.898842685828116e+03,
55,4.730769230764398e+00,0.000000000000000e+00,1.336263223254333e-03,-5.152389797205237e-03,3.877024270537524e-04,-1.474016765031098e-03,7.315676352261524e-04,-2.095519756915121e-03,4.262719051763179e+02,8.614796326350699e+00,5.646809948646692e+02,1.204116258680333e+03,
56,4.846153846149453e+00,0.000000000000000e+00,1.327281555968381e-03,-4.507023037290054e-03,3.846674362627322e-04,-1.286649545471570e-03,6.576502232788447e-04,-1.771221027784738e-03,-4.364257427893824e+03,-1.216839989385787e+02,5.769420906939391e+02,4.396689436852942e+03,
57,4.961538461534508e+00,0.000000000000000e+00,1.299463908866178e-03,-3.867837621641737e-03,3.759714382742259e-04,-1.101245886394637e-03,5.877463349119755e-04,-1.486953784830975e-03,-9.468327924311723e+03,-2.607360391410158e+02,5.884524018350741e+02,9.282502531147693e+03,
58,5.076923076919562e+00,0.000000000000000e+00,1.251663596596792e-03,-3.243818105022994e-03,3.613053885574410e-04,-9.205465808215645e-04,5.229229733019476e-04,-1.236963994381960e-03,-1.488639502058425e+04,-4.087902173385860e+02,6.004703506981350e+02,1.452732939694120e+04,
59,5.192307692304618e+00,0.000000000000000e+00,1.182731755168973e-03,-2.644495080593762e-03,3.403870638652425e-04,-7.474502437316611e-04,4.648418728270643e-04,-1.015082107529469e-03,-2.061897106350962e+04,-5.652134478323973e+02,6.146939305184161e+02,2.009140584979550e+04,
60,5.307692307689671e+00,0.000000000000000e+00,1.091512676376851e-03,-2.079940092115136e-03,3.129659063364894e-04,-5.849914665985302e-04,4.117586575245154e-04,-8.141537563247929e-04,-2.666989245627853e+04,-7.336915222666373e+02,6.325499305274629e+02,2.596703673020625e+04,
61,5.423076923074727e+00,0.000000000000000e+00,9.768269791138044e-04,-1.560786258645510e-03,2.788213621285464e-04,-4.363272030937767e-04,3.627810232021233e-04,-6.312998719477699e-04,-3.303750853048588e+04,-9.000315226835387e+02,6.571607744038017e+02,3.216434158444230e+04,
62,5.538461538459781e+00,0.000000000000000e+00,8.374825201564271e-04,-1.098203290416414e-03,2.377696743872102e-04,-3.047123329720677e-04,3.131530782740328e-04,-4.652631915803933e-04,-3.972769441158044e+04,-1.120837302402223e+03,6.871379740496729e+02,3.863130919642809e+04,
63,5.653846153844836e+00,0.000000000000000e+00,6.723617359336614e-04,-7.041797093403858e-04,1.896865049350079e-04,-1.935492966777867e-04,2.575370590852828e-04,-3.160438886563332e-04,-4.658122265736502e+04,-1.104100108166571e+03,7.100335821057281e+02,4.549928863296310e+04,
64,5.769230769229891e+00,0.000000000000000e+00,4.807847164472689e-04,-3.902450530007451e-04,1.346121254228109e-04,-1.060105078221576e-04,1.926931847725859e-04,-1.875143073236610e-04,-5.329336405414436e+04,-2.038545001428524e+03,9.603251958870642e+02,5.129079229310135e+04,
65,5.884615384614945e+00,0.000000000000000e+00,2.666893367181159e-04,-1.691970351902687e-04,7.393987061293558e-05,-4.550246292935872e-05,1.132550384773538e-04,-8.547499557805119e-05,-6.196480925682499e+04,1.740884136069617e+03,9.349245152508888e+02,6.373312879552018e+04,
66,6.000000000000000e+00,4.166666666656664e-02,0.000000000000000e+00,0.000000000000000e+00,0.000000000000000e+00,0.000000000000000e+00,0.000000000000000e+00,0.000000000000000e+00,-5.712804897405868e+04,-1.714378135500113e+04,1.409077609725041e+04,4.891770171547093e+04,
67,6.000000000000000e+00,8.333333333313328e-02,0.000000000000000e+00,0.000000000000000e+00,0.000000000000000e+00,0.000000000000000e+00,0.000000000000000e+00,0.000000000000000e+00,-4.300154194672703e+04,-1.290029448046433e+04,1.223071112609077e+04,3.878719218536846e+04,
68,6.000000000000000e+00,1.249999999996999e-01,0.000000000000000e+00,0.000000000000000e+00,0.000000000000000e+00,0.000000000000000e+00,0.000000000000000e+00,0.000000000000000e+00,-3.102318564415029e+04,-9.302876547746306e+03,1.102826735592893e+04,3.095581610519613e+04,
69,6.000000000000000e+00,1.666666666663036e-01,0.000000000000000e+00,0.000000000000000e+00,0.000000000000000e+00,0.000000000000000e+00,0.000000000000000e+00,0.000000000000000e+00,-2.016196715884994e+04,-6.041844448743796e+03,1.029101096866036e+04,2.495991771574591e+04,
70,6.000000000000000e+00,2.083333333329072e-01,0.000000000000000e+00,0.000000000000000e+00,0.000000000000000e+00,0.000000000000000e+00,0.000000000000000e+00,0.000000000000000e+00,-9.901641692282659e+03,-2.962168238589989e+03,9.907243088530679e+03,2.099452676950497e+04,
71,6.000000000000000e+00,2.499999999995108e-01,0.000000000000000e+00,0.000000000000000e+00,0.000000000000000e+00,0.000000000000000e+00,0.000000000000000e+00,0.000000000000000e+00,9.189008511617567e+01,3.645677012184831e+01,9.819711508705668e+03,1.963950124899402e+04,
72,6.000000000000000e+00,2.916666666662301e-01,0.000000000000000e+00,0.000000000000000e+00,0.000000000000000e+00,0.000000000000000e+00,0.000000000000000e+00,0.000000000000000e+00,1.008903171364428e+04,3.035196400796503e+03,1.001180820780976e+04,2.122973874028236e+04,
73,6.000000000000000e+00,3.333333333329494e-01,0.000000000000000e+00,0.000000000000000e+00,0.000000000000000e+00,0.000000000000000e+00,0.000000000000000e+00,0.000000000000000e+00,2.036159864580100e+04,6.115601314609761e+03,1.050360067899747e+04,2.538209898443493e+04,
74,6.000000000000000e+00,3.749999999996687e-01,0.000000000000000e+00,0.000000000000000e+00,0.000000000000000e+00,0.000000000000000e+00,0.000000000000000e+00,0.000000000000000e+00,3.124901783040621e+04,9.379449258482085e+03,1.135643397732140e+04,3.153018236939221e+04,
75,6.000000000000000e+00,4.166666666664458e-01,0.000000000000000e+00,0.000000000000000e+00,0.000000000000000e+00,0.000000000000000e+00,0.000000000000000e+00,0.000000000000000e+00,4.328152829456404e+04,1.298569676171836e+04,1.268762475838042e+04,3.951886506852692e+04,
76,6.000000000000000e+00,4.583333333332229e-01,0.000000000000000e+00,0.000000000000000e+00,0.000000000000000e+00,0.000000000000000e+00,0.000000000000000e+00,0.000000000000000e+00,5.752902595628148e+04,1.725500015270073e+04,1.469824233816459e+04,4.986131231479115e+04,
77,5.884615384615919e+00,5.000000000000000e-01,-2.697746681845650e-04,-1.768280584135695e-04,-7.506376574845776e-05,-4.642976965268011e-05,-1.191476474356549e-04,-8.429046535112730e-05,6.208493526754567e+04,-2.901432924559133e+03,1.157718240435381e+03,6.502760411468930e+04,
78,5.769230769231837e+00,5.000000000000000e-01,-4.841371926546951e-04,-4.001684069244170e-04,-1.364768247302594e-04,-1.074511993958735e-04,-2.050357733574644e-04,-1.890362465717715e-04,5.321089359186404e+04,1.046636100803922e+03,1.210181921612954e+03,5.222037840467279e+04,
79,5.653846153847756e+00,5.000000000000000e-01,-6.762380358770033e-04,-7.153072854350267e-04,-1.921397364809487e-04,-1.954831450353314e-04,-2.738646330685097e-04,-3.241072888505013e-04,4.663819454273862e+04,8.360697184693663e+01,9.770933829755252e+02,4.659558423082644e+04,
80,5.538461538463674e+00,5.000000000000000e-01,-8.417694739398720e-04,-1.110235240372962e-03,-2.405725828857472e-04,-3.071744802062615e-04,-3.282525478037311e-04,-4.765969086503256e-04,3.987072630690902e+04,1.209118668271708e+02,9.656616971316514e+02,3.979670536707993e+04,
81,5.423076923079591e+00,5.000000000000000e-01,-9.812057334571949e-04,-1.573694894583525e-03,-2.816991893728755e-04,-4.393339253465525e-04,-3.754076980309730e-04,-6.422724889233101e-04,3.322062910456720e+04,-9.412014452364565e+01,9.257757091863308e+02,3.336616190371132e+04,
82,5.307692307695510e+00,5.000000000000000e-01,-1.095562425026481e-03,-2.093697970572377e-03,-3.156389653192510e-04,-5.885181472958045e-04,-4.233638799680053e-04,-8.232639117698628e-04,2.686765342058186e+04,-2.557435094836243e+02,8.736740609241850e+02,2.717962263323045e+04,
83,5.192307692311429e+00,5.000000000000000e-01,-1.186030691687566e-03,-2.659019218856723e-03,-3.426002626424523e-04,-7.514352947699685e-04,-4.758933855137002e-04,-1.022661446273179e-03,2.082018405904618e+04,-4.220885092199077e+02,8.159366502960621e+02,2.130486222282827e+04,
84,5.076923076927347e+00,5.000000000000000e-01,-1.253848974676679e-03,-3.258971571998993e-03,-3.628468699935578e-04,-9.249004897346802e-04,-5.347426540985861e-04,-1.245796442308777e-03,1.508738306907318e+04,-5.774896793619688e+02,7.538390688419476e+02,1.573725934181413e+04,
85,4.961538461543266e+00,5.000000000000000e-01,-1.300259432828922e-03,-3.883449219876232e-03,-3.766824939030146e-04,-1.105864324188992e-03,-6.009683766091594e-04,-1.499379820143684e-03,9.667909694367128e+03,-7.253526483506873e+02,6.897996693526482e+02,1.048442637724698e+04,
86,4.846153846159184e+00,5.000000000000000e-01,-1.326507767703263e-03,-4.522905210262833e-03,-3.844440037810559e-04,-1.291426512222069e-03,-6.722984259906559e-04,-1.786364211515542e-03,4.561891377389033e+03,-8.648107470310874e+02,6.252588254562933e+02,5.568921829441475e+03,
87,4.730769230775103e+00,5.000000000000000e-01,-1.333838916621100e-03,-5.168352403400803e-03,-3.864947236883782e-04,-1.478846208288262e-03,-7.460103738757678e-04,-2.111181948034952e-03,-2.310474815095604e+02,-9.960050588489148e+02,5.615487070757133e+02,1.358862721838566e+03,
88,4.615384615391021e+00,5.000000000000000e-01,-1.323494791111172e-03,-5.811360509042895e-03,-3.832175662432723e-04,-1.665550220271316e-03,-8.186087489477759e-04,-2.474832680640142e-03,-4.711236591373695e+03,-1.118837811296348e+03,4.997173065608890e+02,3.728833402152353e+03,
89,4.500000000006939e+00,5.000000000000000e-01,-1.296712164075143e-03,-6.444054508850425e-03,-3.750080792204483e-04,-1.849146187582853e-03,-8.852556847445623e-04,-2.877278434517833e-03,-8.879071945598158e+03,-1.233279235862227e+03,4.406063723748049e+02,7.696407087840419e+03,
90,4.384615384622217e+00,5.000000000000000e-01,-1.254721053944058e-03,-7.059112932003846e-03,-3.622686917864680e-04,-2.027419459108934e-03,-9.411485802980717e-04,-3.316694598215483e-03,-1.273498236045283e+04,-1.339291684373062e+03,3.848538741897003e+02,1.142165557188653e+04,
91,4.269230769237494e+00,5.000000000000000e-01,-1.198743434543736e-03,-7.649766218597489e-03,-3.454067059131159e-04,-2.198338473391868e-03,-9.826020421705474e-04,-3.784151703829198e-03,-1.627944040302872e+04,-1.436848369319534e+03,3.329126068196268e+02,1.485751868564348e+04,
92,4.153846153852773e+00,5.000000000000000e-01,-1.129992288020293e-03,-8.209795042404575e-03,-3.248318255439518e-04,-2.360061135058554e-03,-1.007023893159485e-03,-4.272126214933808e-03,-1.951295836646332e+04,-1.525928635773625e+03,2.850640187077358e+02,1.799606302811152e+04,
93,4.038461538468050e+00,5.000000000000000e-01,-1.049670981907593e-03,-8.733528626479328e-03,-3.009527952784326e-04,-2.510930810672370e-03,-1.012109626306114e-03,-4.772147666602678e-03,-2.243608294349259e+04,-1.606518556916664e+03,2.414327370143999e+02,2.083516046495733e+04,
94,3.923076923083329e+00,5.000000000000000e-01,-9.589729570965287e-04,-9.215843045676441e-03,-2.741748819973767e-04,-2.649478261885827e-03,-9.958318242347568e-04,-5.273285714793185e-03,-2.504938594198509e+04,-1.678610371355820e+03,2.020010448974331e+02,2.337426722832783e+04,
95,3.807692307698606e+00,5.000000000000000e-01,-8.590817145203723e-04,-9.652159530754569e-03,-2.448975971275647e-04,-2.774425342567073e-03,-9.553608708720881e-04,-5.764899390290721e-03,-2.735345204925206e+04,-1.742201505250159e+03,1.666232861517929e+02,2.561341850877367e+04,
96,3.692307692313884e+00,5.000000000000000e-01,-7.511710810665788e-04,-1.003844280505666e-02,-2.135101772937858e-04,-2.884686168170619e-03,-8.876069351205940e-04,-6.233978235430701e-03,-2.934886423238457e+04,-1.797293682128129e+03,1.350401506140331e+02,2.755289427909288e+04,
97,3.576923076929162e+00,5.000000000000000e-01,-6.364057394433933e-04,-1.037119947112924e-02,-1.803847207316575e-04,-2.979360629467432e-03,-7.911785730451783e-04,-6.665306883146468e-03,-3.103618520964396e+04,-1.843891889914472e+03,1.068929903496023e+02,2.919307612620955e+04,
98,3.461538461544440e+00,5.000000000000000e-01,-5.159420142844884e-04,-1.064747648104675e-02,-1.458706840045910e-04,-3.057723213236807e-03,-6.671372267902807e-04,-7.042351994638407e-03,-3.241593554201973e+04,-1.882003374365515e+03,8.173815189298011e+01,3.053436978424163e+04,
99,3.346153846159718e+00,5.000000000000000e-01,-3.909288956868675e-04,-1.086485974274678e-02,-1.102910313114517e-04,-3.119212232262671e-03,-5.197579363835614e-04,-7.348301818944885e-03,-3.348857131043159e+04,-1.911636201930205e+03,5.906148305932606e+01,3.157715604486307e+04,
100,3.230769230774996e+00,5.000000000000000e-01,-2.625092692043493e-04,-1.102147291389072e-02,-7.394114516591944e-05,-3.163414013411284e-03,-3.558442710473881e-04,-7.571811670239945e-03,-3.425446425781024e+04,-1.932797317932802e+03,3.829265028801206e+01,3.232175767313143e+04,
101,3.115384615390274e+00,5.000000000000000e-01,-1.318213117977089e-04,-1.111597644024161e-02,-3.709270160170855e-05,-3.190044951039950e-03,-1.811153633332481e-04,-7.708886232235025e-03,-3.471388795097744e+04,-1.945491734271587e+03,1.881906134506744e+01,3.276841783246946e+04,
102,3.000000000005552e+00,5.000000000000000e-01,-7.627445086991020e-15,-1.114756687147068e-02,1.401243092281019e-13,-3.198939889265676e-03,2.566292897537007e-10,-7.755621591719063e-03,-3.486701023688937e+04,-1.949722779454840e+03,7.991593520273454e-08,3.291728745743453e+04,
103,2.884615384620830e+00,5.000000000000000e-01,1.318213117826846e-04,-1.111597644024836e-02,3.709270149568495e-05,-3.190044951252640e-03,1.811154484732451e-04,-7.708886429019218e-03,-3.471388795078704e+04,-1.945491734130962e+03,-1.881906103690494e+01,3.276841783241896e+04,
104,2.769230769236107e+00,5.000000000000000e-01,2.625092691895879e-04,-1.102147291390462e-02,7.394114537732972e-05,-3.163414013491610e-03,3.558444783142133e-04,-7.571811235336150e-03,-3.425446425813202e+04,-1.932797318171129e+03,-3.829265018741239e+01,3.232175767321441e+04,
105,2.653846153851385e+00,5.000000000000000e-01,3.909288956732202e-04,-1.086485974276665e-02,1.102910317786397e-04,-3.119212232320082e-03,5.197578512827270e-04,-7.348301787132082e-03,-3.348857131065161e+04,-1.911636201842458e+03,-5.906148298333369e+01,3.157715604517026e+04,
106,2.538461538466663e+00,5.000000000000000e-01,5.159420142719636e-04,-1.064747648107239e-02,1.458706837574894e-04,-3.057723213106994e-03,6.671368725139153e-04,-7.042351901602937e-03,-3.241593554240483e+04,-1.882003374447696e+03,-8.173815187214018e+01,3.053436978454432e+04,
107,2.423076923081941e+00,5.000000000000000e-01,6.364057394310963e-04,-1.037119947115991e-02,1.803847207358901e-04,-2.979360629380726e-03,7.911795695521525e-04,-6.665306696082546e-03,-3.103618520986971e+04,-1.843891889984564e+03,-1.068929903917633e+02,2.919307612636583e+04,
108,2.307692307697219e+00,5.000000000000000e-01,7.511710810557781e-04,-1.003844280509285e-02,2.135101771497950e-04,-2.884686168326841e-03,8.876073212382012e-04,-6.233978507917778e-03,-2.934886423273993e+04,-1.797293682146127e+03,-1.350401501971655e+02,2.755289427942206e+04,
109,2.192307692312497e+00,5.000000000000000e-01,8.590817145100064e-04,-9.652159530795726e-03,2.448975975437142e-04,-2.774425342715805e-03,9.553606788235617e-04,-5.764899302550074e-03,-2.735345204933835e+04,-1.742201505406090e+03,-1.666232860887908e+02,2.561341850870240e+04,
110,2.076923076927774e+00,5.000000000000000e-01,9.589729570874478e-04,-9.215843045721834e-03,2.741748818093434e-04,-2.649478261961901e-03,9.958311996132057e-04,-5.273285879547313e-03,-2.504938594208728e+04,-1.678610371304746e+03,-2.020010446883509e+02,2.337426722847384e+04,
111,1.961538461543052e+00,5.000000000000000e-01,1.049670981898945e-03,-8.733528626528783e-03,3.009527946863441e-04,-2.510930810750937e-03,1.012109309936749e-03,-4.772147355547318e-03,-2.243608294373050e+04,-1.606518556866311e+03,-2.414327370328120e+02,2.083516046524638e+04,
112,1.846153846158330e+00,5.000000000000000e-01,1.129992288013532e-03,-8.209795042457205e-03,3.248318250494071e-04,-2.360061135083412e-03,1.007023675656262e-03,-4.272126082898340e-03,-1.951295836667735e+04,-1.525928635810391e+03,-2.850640185733509e+02,1.799606302828018e+04,
113,1.730769230773608e+00,5.000000000000000e-01,1.198743434538563e-03,-7.649766218652971e-03,3.454067055521486e-04,-2.198338473530519e-03,9.826014970124790e-04,-3.784152184641093e-03,-1.627944040353429e+04,-1.436848369448210e+03,-3.329126069542524e+02,1.485751868603206e+04,
114,1.615384615388885e+00,5.000000000000000e-01,1.254721053939960e-03,-7.059112932062158e-03,3.622686917015103e-04,-2.027419459392258e-03,9.411480911864406e-04,-3.316694847868116e-03,-1.273498236070762e+04,-1.339291684419227e+03,-3.848538738542792e+02,1.142165557204947e+04,
115,1.500000000004164e+00,5.000000000000000e-01,1.296712164072997e-03,-6.444054508910875e-03,3.750080787898052e-04,-1.849146187557367e-03,8.852553426384946e-04,-2.877278079274426e-03,-8.879071946281896e+03,-1.233279236033354e+03,-4.406063723560175e+02,7.696407088345357e+03,
116,1.384615384619228e+00,5.000000000000000e-01,1.323494791110932e-03,-5.811360509099293e-03,3.832175663148164e-04,-1.665550219836467e-03,8.186080092884480e-04,-2.474832589881338e-03,-4.711236591844967e+03,-1.118837811421488e+03,-4.997173062374678e+02,3.728833402312448e+03,
117,1.269230769234292e+00,5.000000000000000e-01,1.333838916621785e-03,-5.168352403452941e-03,3.864947235598092e-04,-1.478846208328619e-03,7.460085753691432e-04,-2.111182045059075e-03,-2.310474818919286e+02,-9.960050587979484e+02,-5.615487071376367e+02,1.358862721696983e+03,
118,1.153846153849356e+00,5.000000000000000e-01,1.326507767704929e-03,-4.522905210309933e-03,3.844440036204584e-04,-1.291426512066652e-03,6.722981667234165e-04,-1.786363678773662e-03,4.561891376855732e+03,-8.648107472458112e+02,-6.252588252865562e+02,5.568921829054804e+03,
119,1.038461538464421e+00,5.000000000000000e-01,1.300259432831795e-03,-3.883449219917207e-03,3.766824941961934e-04,-1.105864324350124e-03,6.009686799189155e-04,-1.499379474100390e-03,9.667909693638319e+03,-7.253526485249006e+02,-6.897996693234093e+02,1.048442637668951e+04,
120,9.230769230794849e-01,5.000000000000000e-01,1.253848974679092e-03,-3.258971572033570e-03,3.628468694961608e-04,-9.249004895921318e-04,5.347426422424460e-04,-1.245796340661087e-03,1.508738306877923e+04,-5.774896795517893e+02,-7.538390690790817e+02,1.573725934175591e+04,
121,8.076923076945501e-01,5.000000000000000e-01,1.186030691691535e-03,-2.659019218885186e-03,3.426002626163741e-04,-7.514352945185379e-04,4.758928188828735e-04,-1.022661268942324e-03,2.082018405853396e+04,-4.220885092325385e+02,-8.159366506244484e+02,2.130486222238046e+04,
122,6.923076923096136e-01,5.000000000000000e-01,1.095562425030045e-03,-2.093697970595368e-03,3.156389650504103e-04,-5.885181472612005e-04,4.233647597234701e-04,-8.232642311047703e-04,2.686765342043388e+04,-2.557435093970839e+02,-8.736740608987459e+02,2.717962263299314e+04,
123,5.769230769246780e-01,5.000000000000000e-01,9.812057334619454e-04,-1.573694894601894e-03,2.816991890380962e-04,-4.393339253903698e-04,3.754066765995729e-04,-6.422725332196887e-04,3.322062910410815e+04,-9.412014463762631e+01,-9.257757094151648e+02,3.336616190339217e+04,
124,4.615384615397424e-01,5.000000000000000e-01,8.417694739447250e-04,-1.110235240386210e-03,2.405725832485613e-04,-3.071744805133390e-04,3.282530704081871e-04,-4.765970336572590e-04,3.987072630661164e+04,1.209118667764109e+02,-9.656616974877913e+02,3.979670536686815e+04,
125,3.461538461548068e-01,5.000000000000000e-01,6.762380358808923e-04,-7.153072854433355e-04,1.921397360727666e-04,-1.954831451490294e-04,2.738636356948512e-04,-3.241069828241313e-04,4.663819454247710e+04,8.360697170909663e+01,-9.770933829091846e+02,4.659558423069729e+04,
126,2.307692307698712e-01,5.000000000000000e-01,4.841371926583960e-04,-4.001684069280618e-04,1.364768251276403e-04,-1.074511991226813e-04,2.050370367336109e-04,-1.890360779128166e-04,5.321089359170089e+04,1.046636100876874e+03,-1.210181921899789e+03,5.222037840446353e+04,
127,1.153846153849356e-01,5.000000000000000e-01,2.697746681866587e-04,-1.768280584146371e-04,7.506376542342589e-05,-4.642976977752462e-05,1.191472596453041e-04,-8.429085697941749e-05,6.208493526723645e+04,-2.901432924692052e+03,-1.157718240799520e+03,6.502760411453906e+04,
128,1.153846153848703e-01,4.583333333333879e-01,2.015079787846410e-04,-1.468807093706943e-04,5.673294819175523e-05,-3.837249034843706e-05,8.694954042904804e-05,-7.142388888723748e-05,4.995933356441987e+04,-2.983200720660160e+03,-2.641256218897322e+03,5.320542147358980e+04,
129,2.307692307697405e-01,4.583333333333846e-01,3.910677260326915e-04,-3.793490709116289e-04,1.106932329865447e-04,-1.017597356077966e-04,1.636663254943377e-04,-1.807072936945243e-04,4.532751365805665e+04,-6.808222122803427e+02,-2.374825865332392e+03,4.625285030266074e+04,
130,3.461538461546108e-01,4.583333333333814e-01,5.513055556418784e-04,-6.958018386809421e-04,1.570210083526788e-04,-1.901092763989917e-04,2.230460747269791e-04,-3.165211931012180e-04,3.867318239874198e+04,-1.022443769188369e+03,-2.138354569496533e+03,3.992534255236421e+04,
131,4.615384615394811e-01,4.583333333333782e-01,6.900065370171100e-04,-1.093508171466313e-03,1.975017650223531e-04,-3.025275854146614e-04,2.716078996016721e-04,-4.700952037025526e-04,3.310486321427757e+04,-9.444506591306077e+02,-2.099290717389799e+03,3.430719838917691e+04,
132,5.769230769243513e-01,4.583333333333749e-01,8.067256571746855e-04,-1.559347977636839e-03,2.318391329025821e-04,-4.353253845751145e-04,3.134041666913259e-04,-6.362581949613897e-04,2.759488073875243e+04,-9.388425501715985e+02,-2.010192356686843e+03,2.881556624417459e+04,
133,6.923076923092216e-01,4.583333333333717e-01,9.025278771402477e-04,-2.081689720227721e-03,2.601887877918798e-04,-5.851523733556037e-04,3.547654879919275e-04,-8.169030451560672e-04,2.234467039044006e+04,-9.344228891026348e+02,-1.909224751999043e+03,2.359018313901426e+04,
134,8.076923076940927e-01,4.583333333333685e-01,9.783884177492271e-04,-2.649228213709140e-03,2.827190634224647e-04,-7.486936817277900e-04,3.994532837456525e-04,-1.015757034134186e-03,1.734663110688484e+04,-9.332898562718067e+02,-1.801310646964244e+03,1.863154289388618e+04,
135,9.230769230789622e-01,4.583333333333653e-01,1.035344525715411e-03,-3.251297331955515e-03,2.996515129108169e-04,-9.227670173242926e-04,4.484741557110859e-04,-1.238217674948927e-03,1.260801110181466e+04,-9.327628318470174e+02,-1.689881825469686e+03,1.395619436159953e+04,
136,1.038461538463833e+00,4.583333333333621e-01,1.074437983469994e-03,-3.877788806152598e-03,3.112413841844687e-04,-1.104319860683399e-03,5.032460318716021e-04,-1.490976053057413e-03,8.128609032148217e+03,-9.329507822354213e+02,-1.576664504250182e+03,9.594547936484674e+03,
137,1.153846153848703e+00,4.583333333333587e-01,1.096714953407214e-03,-4.519157488722941e-03,3.177719795922731e-04,-1.290449693285097e-03,5.618704036831246e-04,-1.777643082978600e-03,3.908459685022244e+03,-9.336540994693050e+02,-1.463055616511144e+03,5.657578355620210e+03,
138,1.269230769233573e+00,4.583333333333555e-01,1.103221243832098e-03,-5.166415946775907e-03,3.195498487146037e-04,-1.478413102019450e-03,6.220291810143439e-04,-2.102224929290294e-03,-5.271139047530551e+01,-9.347725622625746e+02,-1.350174814951853e+03,2.840760467638166e+03,
139,1.384615384618444e+00,4.583333333333523e-01,1.094999848698736e-03,-5.811133161301948e-03,3.168963955797718e-04,-1.665634993991561e-03,6.811625895234072e-04,-2.466186985660294e-03,-3.755221668218570e+03,-9.362016288225351e+02,-1.238932191625271e+03,3.753223399199415e+03,
140,1.500000000003314e+00,4.583333333333491e-01,1.073088863565830e-03,-6.445432715202927e-03,3.101437543639847e-04,-1.849720372988634e-03,7.343221194566697e-04,-2.869616237011423e-03,-7.199434411621607e+03,-9.378555525980616e+02,-1.130049798236845e+03,6.656982799568522e+03,
141,1.615384615388010e+00,4.583333333333459e-01,1.038519862706650e-03,-7.061991295163323e-03,2.996308135350817e-04,-2.028452618058621e-03,7.785781824378949e-04,-3.310035787162015e-03,-1.038574454096809e+04,-9.396557470594620e+02,-1.024079811341843e+03,9.665585928561084e+03,
142,1.730769230772707e+00,4.583333333333426e-01,9.923166406142366e-04,-7.654037161810166e-03,2.856980840670571e-04,-2.199798300308776e-03,8.116677944245056e-04,-3.778927938498697e-03,-1.331457899733426e+04,-9.415327516983681e+02,-9.214162283449747e+02,1.250952856266272e+04,
143,1.846153846157404e+00,4.583333333333394e-01,9.354942965649417e-04,-8.215348593829289e-03,2.686878875965337e-04,-2.361912781537673e-03,8.305697427794101e-04,-4.268763060745305e-03,-1.598639391990464e+04,-9.434247146763441e+02,-8.223067963322663e+02,1.513260309327591e+04,
144,1.961538461542100e+00,4.583333333333361e-01,8.690586409256440e-04,-8.740252306721815e-03,2.489423360447065e-04,-2.513137507340008e-03,8.335987044305822e-04,-4.770838095080173e-03,-1.840166958012824e+04,-9.452771860944227e+02,-7.268645911351244e+02,1.751681945873353e+04,
145,2.076923076926796e+00,4.583333333333329e-01,7.940059106706705e-04,-9.223621848508817e-03,2.267988206599495e-04,-2.652001810524740e-03,8.190803557343751e-04,-5.274368506752075e-03,-2.056090256426622e+04,-9.470432577423248e+02,-6.350796670881963e+02,1.965494293124021e+04,
146,2.192307692311494e+00,4.583333333333298e-01,7.113227752842628e-04,-9.660875986521151e-03,2.025878644942559e-04,-2.777226383763346e-03,7.844574052512090e-04,-5.768705707234288e-03,-2.246459583693726e+04,-9.486828712675799e+02,-5.468307952660057e+02,2.154369064066966e+04,
147,2.307692307696191e+00,4.583333333333264e-01,6.219866129129981e-04,-1.004797711594238e-02,1.766305416815900e-04,-2.887724671081073e-03,7.274571259111560e-04,-6.240732394419284e-03,-2.411324661442981e+04,-9.501625599269033e+02,-4.618971208022188e+02,2.318149819827848e+04,
148,2.423076923080886e+00,4.583333333333233e-01,5.269660415967066e-04,-1.038142970728318e-02,1.492340081651886e-04,-2.982596699161839e-03,6.473192424211289e-04,-6.674912331104317e-03,-2.550733112433599e+04,-9.514550429598224e+02,-3.799697209266344e+02,2.456763232546406e+04,
149,2.538461538465583e+00,4.583333333333200e-01,4.272216915307478e-04,-1.065827882667544e-02,1.206863829848818e-04,-3.061118043792236e-03,5.456072886404387e-04,-7.054431557515509e-03,-2.664728724446063e+04,-9.525391471154911e+02,-3.006635925916158e+02,2.570178348227340e+04,
150,2.653846153850279e+00,4.583333333333167e-01,3.237071969989784e-04,-1.087610878332024e-02,9.125358097230811e-05,-3.122728423518278e-03,4.256787097087611e-04,-7.362448894469793e-03,-2.753349726737962e+04,-9.533990354185330e+02,-2.235303213774685e+02,2.658385760643104e+04,
151,2.769230769234976e+00,4.583333333333136e-01,2.173703748392460e-04,-1.103304195710183e-02,6.118000877951263e-05,-3.167015471943581e-03,2.917534964629745e-04,-7.587517405805289e-03,-2.816627290858502e+04,-9.540223376999511e+02,-1.480708304354349e+02,2.721386192762685e+04,
152,2.884615384619672e+00,4.583333333333102e-01,1.091545515078081e-04,-1.112773786273602e-02,3.069162074607259e-05,-3.193696845180267e-03,1.483289987705753e-04,-7.725500069019012e-03,-2.854584415906352e+04,-9.543997653301416e+02,-7.374810328223964e+01,2.759183862781587e+04,
153,3.000000000004368e+00,4.583333333333072e-01,-5.188465711205865e-15,-1.115939248373079e-02,1.240417464535370e-13,-3.202608449258573e-03,-3.187423647881552e-10,-7.772518543110842e-03,-2.867235204867223e+04,-9.545260759199642e+02,6.209575076354668e-08,2.771782597275226e+04,
154,3.115384615389100e+00,4.583333333333038e-01,-1.091545515183370e-04,-1.112773786273049e-02,-3.069162086496015e-05,-3.193696845038152e-03,-1.483291503895702e-04,-7.725500053776169e-03,-2.854584415890560e+04,-9.543997652709896e+02,7.374810332744482e+01,2.759183862771759e+04,
155,3.230769230773833e+00,4.583333333333006e-01,-2.173703748495791e-04,-1.103304195709041e-02,-6.118000880823518e-05,-3.167015471815013e-03,-2.917533196660657e-04,-7.587517409650510e-03,-2.816627290845625e+04,-9.540223376596103e+02,1.480708303959865e+02,2.721386192753757e+04,
156,3.346153846158565e+00,4.583333333332974e-01,-3.237071970084398e-04,-1.087610878330381e-02,-9.125358081959872e-05,-3.122728423548108e-03,-4.256783155361881e-04,-7.362448985361889e-03,-2.753349726699063e+04,-9.533990353368122e+02,2.235303212592798e+02,2.658385760611983e+04,
157,3.461538461543296e+00,4.583333333332940e-01,-4.272216915383756e-04,-1.065827882665455e-02,-1.206863830599883e-04,-3.061118043866417e-03,-5.456079794556771e-04,-7.054431610271072e-03,-2.664728724416556e+04,-9.525391470339083e+02,3.006635926408476e+02,2.570178348206227e+04,
158,3.576923076928028e+00,4.583333333332908e-01,-5.269660416041876e-04,-1.038142970725823e-02,-1.492340082780843e-04,-2.982596699296351e-03,-6.473200376066618e-04,-6.674912552474745e-03,-2.550733112427255e+04,-9.514550430441263e+02,3.799697208611426e+02,2.456763232531233e+04,
159,3.692307692312760e+00,4.583333333332875e-01,-6.219866129205966e-04,-1.004797711591289e-02,-1.766305419007445e-04,-2.887724671000927e-03,-7.274575575100802e-04,-6.240732412342859e-03,-2.411324661426081e+04,-9.501625598841897e+02,4.618971208380335e+02,2.318149819815515e+04,
160,3.807692307697493e+00,4.583333333332845e-01,-7.113227752909515e-04,-9.660875986487504e-03,-2.025878645403708e-04,-2.777226383552061e-03,-7.844568949535172e-04,-5.768705852699622e-03,-2.246459583685394e+04,-9.486828712335758e+02,5.468307952287935e+02,2.154369064061663e+04,
161,3.923076923082225e+00,4.583333333332811e-01,-7.940059106770276e-04,-9.223621848471671e-03,-2.267988203559526e-04,-2.652001810519220e-03,-8.190798759649886e-04,-5.274368420918494e-03,-2.056090256414425e+04,-9.470432578380755e+02,6.350796669886879e+02,1.965494293101008e+04,
162,4.038461538466956e+00,4.583333333332779e-01,-8.690586409311338e-04,-8.740252306681240e-03,-2.489423359680526e-04,-2.513137507254963e-03,-8.335986389917555e-04,-4.770838197487370e-03,-1.840166957995298e+04,-9.452771859846057e+02,7.268645910979116e+02,1.751681945866214e+04,
163,4.153846153851688e+00,4.583333333332748e-01,-9.354942965693078e-04,-8.215348593785938e-03,-2.686878874795709e-04,-2.361912781434827e-03,-8.305689415106551e-04,-4.268763028842822e-03,-1.598639391984854e+04,-9.434247148033388e+02,8.223067963537353e+02,1.513260309309857e+04,
164,4.269230769236422e+00,4.583333333332715e-01,-9.923166406182737e-04,-7.654037161764421e-03,-2.856980837488653e-04,-2.199798300163737e-03,-8.116675145305526e-04,-3.778927643232348e-03,-1.331457899707195e+04,-9.415327517568464e+02,9.214162284519984e+02,1.250952856237696e+04,
165,4.384615384621152e+00,4.583333333332683e-01,-1.038519862709069e-03,-7.061991295114901e-03,-2.996308135005690e-04,-2.028452617959569e-03,-7.785779623064090e-04,-3.310035897803677e-03,-1.038574454057670e+04,-9.396557470563496e+02,1.024079811436961e+03,9.665585928221926e+03,
166,4.500000000005885e+00,4.583333333332649e-01,-1.073088863566894e-03,-6.445432715152664e-03,-3.101437542403288e-04,-1.849720372909482e-03,-7.343224781504891e-04,-2.869616079791286e-03,-7.199434411663282e+03,-9.378555526674290e+02,1.130049798212775e+03,6.656982799526128e+03,
167,4.615384615390045e+00,4.583333333332617e-01,-1.094999848699121e-03,-5.811133161255159e-03,-3.168963959157363e-04,-1.665634994283934e-03,-6.811624883387869e-04,-2.466186912213565e-03,-3.755221667944278e+03,-9.362016287385356e+02,1.238932191854603e+03,3.753223399359295e+03,
168,4.730769230774210e+00,4.583333333332585e-01,-1.103221243831010e-03,-5.166415946732628e-03,-3.195498484315209e-04,-1.478413102019430e-03,-6.220286874788284e-04,-2.102224882297735e-03,-5.271139042608172e+01,-9.347725623878899e+02,1.350174815011366e+03,2.840760467805505e+03,
169,4.846153846158372e+00,4.583333333332553e-01,-1.096714953405907e-03,-4.519157488684024e-03,-3.177719794672899e-04,-1.290449693223654e-03,-5.618701583526709e-04,-1.777643092166734e-03,3.908459685395621e+03,-9.336540993904744e+02,1.463055616717674e+03,5.657578356085938e+03,
170,4.961538461542536e+00,4.583333333332520e-01,-1.074437983467982e-03,-3.877788806118750e-03,-3.112413842160813e-04,-1.104319860546219e-03,-5.032457138420604e-04,-1.490976089994514e-03,8.128609032288016e+03,-9.329507821908797e+02,1.576664504336335e+03,9.594547936631270e+03,
171,5.076923076926698e+00,4.583333333332487e-01,-1.035344525713135e-03,-3.251297331927222e-03,-2.996515132995690e-04,-9.227670175303362e-04,-4.484742963860207e-04,-1.238217738793960e-03,1.260801110195614e+04,-9.327628317700023e+02,1.689881825265166e+03,1.395619436156302e+04,
172,5.192307692310862e+00,4.583333333332456e-01,-9.783884177469091e-04,-2.649228213685715e-03,-2.827190630651705e-04,-7.486936819069381e-04,-3.994528155492668e-04,-1.015757127564017e-03,1.734663110676510e+04,-9.332898563434831e+02,1.801310647114215e+03,1.863154289389703e+04,
173,5.307692307695024e+00,4.583333333332423e-01,-9.025278771373635e-04,-2.081689720208553e-03,-2.601887882820187e-04,-5.851523734010111e-04,-3.547660010071886e-04,-8.169029938416617e-04,2.234467039066788e+04,-9.344228891610810e+02,1.909224752103111e+03,2.359018313933045e+04,
174,5.423076923079186e+00,4.583333333332391e-01,-8.067256571708160e-04,-1.559347977621472e-03,-2.318391325639152e-04,-4.353253844407964e-04,-3.134031517833831e-04,-6.362580428489953e-04,2.759488073902967e+04,-9.388425501591041e+02,2.010192356521818e+03,2.881556624439070e+04,
175,5.538461538463348e+00,4.583333333332358e-01,-6.900065370136727e-04,-1.093508171455263e-03,-1.975017654640149e-04,-3.025275852693402e-04,-2.716088424534665e-04,-4.700953774286340e-04,3.310486321432331e+04,-9.444506590854999e+02,2.099290717386579e+03,3.430719838917675e+04,
176,5.653846153847512e+00,4.583333333332326e-01,-5.513055556385789e-04,-6.958018386738945e-04,-1.570210083763208e-04,-1.901092762394807e-04,-2.230449760243912e-04,-3.165213986181094e-04,3.867318239887051e+04,-1.022443769211533e+03,2.138354569674881e+03,3.992534255255324e+04,
177,5.769230769231674e+00,4.583333333332294e-01,-3.910677260301159e-04,-3.793490709084672e-04,-1.106932333226550e-04,-1.017597357311366e-04,-1.636674369778540e-04,-1.807072678198983e-04,4.532751365796961e+04,-6.808222123620130e+02,2.374825865344725e+03,4.625285030265793e+04,
178,5.884615384615839e+00,4.583333333332261e-01,-2.015079787822820e-04,-1.468807093697802e-04,-5.673294816343808e-05,-3.837249026397539e-05,-8.694924570611170e-05,-7.142351551739732e-05,4.995933356422427e+04,-2.983200720714867e+03,2.641256218896032e+03,5.320542147344933e+04,
179,1.153846153848049e-01,4.166666666667759e-01,1.515745631932528e-04,-1.268090700163507e-04,4.302836234737156e-05,-3.295174841106700e-05,6.438436173324110e-05,-6.441409229678977e-05,3.930076935228906e+04,-1.855997673360442e+02,-5.289260023316607e+03,4.087882621392527e+04,
180,2.307692307696099e-01,4.166666666667694e-01,3.026913392121778e-04,-3.602827198384250e-04,8.608948570116969e-05,-9.660754224151043e-05,1.253286588101801e-04,-1.739416083872948e-04,3.627185401151031e+04,-1.378990757620452e+03,-4.186287972375123e+03,3.857053460583340e+04,
181,3.461538461544149e-01,4.166666666667630e-01,4.333620768061720e-04,-6.798492193118279e-04,1.237598311128988e-04,-1.857518155356612e-04,1.750410256882225e-04,-3.106870741928299e-04,3.130372424108933e+04,-8.619260772520967e+02,-4.044983207657325e+03,3.316740292821759e+04,
182,4.615384615392197e-01,4.166666666667564e-01,5.446472122981878e-04,-1.079447415307359e-03,1.561827939952524e-04,-2.986575255162163e-04,2.160487309866477e-04,-4.648570677317147e-04,2.655824751357042e+04,-9.129198812897025e+02,-3.897465494531148e+03,2.855566471228904e+04,
183,5.769230769240247e-01,4.166666666667499e-01,6.384491137302983e-04,-1.547331676075541e-03,1.837171531436513e-04,-4.319957479980114e-04,2.515955326976273e-04,-6.319056865305349e-04,2.216796057035368e+04,-8.763414083601322e+02,-3.736396420861098e+03,2.422565760802888e+04,
184,6.923076923088297e-01,4.166666666667435e-01,7.153939908063734e-04,-2.071555281901805e-03,2.064262228083015e-04,-5.823328532046586e-04,2.856387298621098e-04,-8.124826479906828e-04,1.795789427769262e+04,-8.732891364717725e+02,-3.553780246066147e+03,2.012786339697336e+04,
185,8.076923076936353e-01,4.166666666667369e-01,7.763528585060406e-04,-2.640902599609115e-03,2.244687072273539e-04,-7.463768981891049e-04,3.217888369309166e-04,-1.011026386299467e-03,1.396057518621989e+04,-8.698323420851470e+02,-3.365854763053645e+03,1.628670932384717e+04,
186,9.230769230784395e-01,4.166666666667305e-01,8.221502803315008e-04,-3.244693850676837e-03,2.380209034279924e-04,-9.209395604917429e-04,3.610924212362607e-04,-1.233182437258701e-03,1.016943933639146e+04,-8.685514138314052e+02,-3.174526452389266e+03,1.273372343777272e+04,
187,1.038461538463245e+00,4.166666666667240e-01,8.536305790405553e-04,-3.872826566473016e-03,2.472912698693895e-04,-1.102968082527227e-03,4.045435265452556e-04,-1.485190882127272e-03,6.586196004543291e+03,-8.684987880647950e+02,-2.981757207842764e+03,9.546516570824522e+03,
188,1.153846153848049e+00,4.166666666667176e-01,8.716400931178320e-04,-4.515755639224146e-03,2.525111710116723e-04,-1.289557612592254e-03,4.508566582649825e-04,-1.771776647526552e-03,3.210578945029844e+03,-8.695252923799283e+02,-2.788689798177184e+03,6.910456840901272e+03,
189,1.269230769232855e+00,4.166666666667111e-01,8.770255743879152e-04,-5.164493947652710e-03,2.539309462495820e-04,-1.477962692952222e-03,4.984169257115274e-04,-2.096074499154047e-03,4.239926230859618e+01,-8.713861350334555e+02,-2.596275365060896e+03,5.272341684421061e+03,
190,1.384615384617660e+00,4.166666666667047e-01,8.706310676838280e-04,-5.810609766950737e-03,2.518118071734817e-04,-1.665607228287559e-03,5.449375645186926e-04,-2.460430025383600e-03,-2.918656625130155e+03,-8.738977471029586e+02,-2.405256504713451e+03,5.227052159978557e+03,
191,1.500000000002465e+00,4.166666666666983e-01,8.532959781258258e-04,-6.446225422799503e-03,2.464237746601870e-04,-1.850093168804475e-03,5.856455208037613e-04,-2.865044712312500e-03,-5.672925167067693e+03,-8.768947512927996e+02,-2.216227422297537e+03,6.530586780559020e+03,
192,1.615384615387135e+00,4.166666666666917e-01,8.258534384399370e-04,-7.064015857381522e-03,2.380424532661948e-04,-2.029202428249235e-03,6.191042275011072e-04,-3.305867098468898e-03,-8.220770576308438e+03,-8.802264740683463e+02,-2.029645349241068e+03,8.388171951725562e+03,
193,1.730769230771806e+00,4.166666666666852e-01,7.891290781171560e-04,-7.657207242841617e-03,2.269425304804046e-04,-2.200900553629192e-03,6.444502736840350e-04,-3.775611733278248e-03,-1.056257941562852e+04,-8.837568417814884e+02,-1.845840688628435e+03,1.035896316274926e+04,
194,1.846153846156477e+00,4.166666666666787e-01,7.439401351747900e-04,-8.219575538765416e-03,2.133995269482672e-04,-2.363339844962423e-03,6.587488777377452e-04,-4.266955201336467e-03,-1.269875781579244e+04,-8.873625611446022e+02,-1.665025086966290e+03,1.227184957626298e+04,
195,1.961538461541148e+00,4.166666666666723e-01,6.910948885542498e-04,-8.745445016711822e-03,1.976891619126659e-04,-2.514859757616333e-03,6.605101134434111e-04,-4.770679525735459e-03,-1.462972695514046e+04,-8.909328472651582e+02,-1.487299999736075e+03,1.405712305898504e+04,
196,2.076923076925818e+00,4.166666666666659e-01,6.313923961944812e-04,-9.229686748585134e-03,1.800819141317628e-04,-2.653988629458246e-03,6.483300055576026e-04,-5.276276783637130e-03,-1.635591663033415e+04,-8.943698100869590e+02,-1.312664883414929e+03,1.568285007450173e+04,
197,2.192307692310490e+00,4.166666666666593e-01,5.656225165538276e-04,-9.667717077489991e-03,1.608407327666055e-04,-2.779446265581624e-03,6.199829377167410e-04,-5.772934850805152e-03,-1.787775727274451e+04,-8.975877343640386e+02,-1.141025689211977e+03,1.713283152447110e+04,
198,2.307692307695160e+00,4.166666666666529e-01,4.945661918827442e-04,-1.005549609871864e-02,1.402200165965310e-04,-2.890145121394606e-03,5.737567380127109e-04,-6.247390865499792e-03,-1.919567028796346e+04,-9.005131983700721e+02,-9.722033801809132e+02,1.839819259010624e+04,
199,2.423076923079832e+00,4.166666666666464e-01,4.189959766989756e-04,-1.038952616935605e-02,1.184630258434800e-04,-2.985184855364737e-03,5.095262216954892e-04,-6.683620543653812e-03,-2.031005580461474e+04,-9.030847958321204e+02,-8.059422388781722e+02,1.947379509251756e+04,
200,2.538461538464502e+00,4.166666666666400e-01,3.396767942585919e-04,-1.066685048001451e-02,9.579721447125077e-05,-3.063841979352176e-03,4.293002403884252e-04,-7.064643650976307e-03,-2.122127910419318e+04,-9.052533815574548e+02,-6.419191672852293e+02,2.035655034705314e+04,
201,2.653846153849173e+00,4.166666666666335e-01,2.573668972135136e-04,-1.088505174602841e-02,7.243178515296380e-05,-3.125556974209922e-03,3.354586045960085e-04,-7.374244526419703e-03,-2.192965767960627e+04,-9.069809207157813e+02,-4.797544079034687e+02,2.104456213078347e+04,
202,2.769230769233843e+00,4.166666666666270e-01,1.728189963992286e-04,-1.104225107287793e-02,4.855968649007885e-05,-3.169917741529486e-03,2.301572711729920e-04,-7.600833111602963e-03,-2.243545014707034e+04,-9.082372672772923e+02,-3.190227345271228e+02,2.153666632495634e+04,
203,2.884615384618515e+00,4.166666666666206e-01,8.678152352578928e-05,-1.113710704733444e-02,2.435997535494837e-05,-3.196642663860132e-03,1.168883284661598e-04,-7.739508724294100e-03,-2.273884749047648e+04,-9.089997282948405e+02,-1.592650558061713e+02,2.183217155374221e+04,
204,3.000000000003185e+00,4.166666666666140e-01,-2.961102838410057e-15,-1.116881508796694e-02,6.451565717918871e-14,-3.205568634773152e-03,1.943607186407706e-10,-7.786597294657828e-03,-2.283996679035703e+04,-9.092551896771590e+02,-6.308437150437385e-08,2.193071160067987e+04,
205,3.115384615387927e+00,4.166666666666076e-01,-8.678152353261625e-05,-1.113710704733012e-02,-2.435997523033405e-05,-3.196642663731852e-03,-1.168885919289525e-04,-7.739508626476553e-03,-2.273884749051822e+04,-9.089997283300183e+02,1.592650558176136e+02,2.183217155374910e+04,
206,3.230769230772669e+00,4.166666666666011e-01,-1.728189964052390e-04,-1.104225107286917e-02,-4.855968635336909e-05,-3.169917741536868e-03,-2.301574711732159e-04,-7.600833225258696e-03,-2.243545014706920e+04,-9.082372671872752e+02,3.190227345966931e+02,2.153666632504930e+04,
207,3.346153846157411e+00,4.166666666665947e-01,-2.573668972194250e-04,-1.088505174601559e-02,-7.243178508661879e-05,-3.125556974251831e-03,-3.354586630651031e-04,-7.374244462622541e-03,-2.192965767941016e+04,-9.069809206466423e+02,4.797544080875350e+02,2.104456213067341e+04,
208,3.461538461542154e+00,4.166666666665881e-01,-3.396767942640078e-04,-1.066685047999836e-02,-9.579721429676163e-05,-3.063841979316993e-03,-4.292996343838249e-04,-7.064643472659698e-03,-2.122127910417134e+04,-9.052533816423700e+02,6.419191672350399e+02,2.035655034694026e+04,
209,3.576923076926894e+00,4.166666666665817e-01,-4.189959767035266e-04,-1.038952616933682e-02,-1.184630257275478e-04,-2.985184855509424e-03,-5.095260301935907e-04,-6.683620335966223e-03,-2.031005580448698e+04,-9.030847958320649e+02,8.059422389775305e+02,1.947379509240674e+04,
210,3.692307692311637e+00,4.166666666665754e-01,-4.945661918870657e-04,-1.005549609869577e-02,-1.402200163390440e-04,-2.890145121288048e-03,-5.737559864492493e-04,-6.247390774008380e-03,-1.919567028797187e+04,-9.005131983745771e+02,9.722033801076468e+02,1.839819259009463e+04,
211,3.807692307696379e+00,4.166666666665687e-01,-5.656225165580408e-04,-9.667717077463988e-03,-1.608407330855197e-04,-2.779446265482920e-03,-6.199840988150997e-04,-5.772935015616624e-03,-1.787775727245547e+04,-8.975877343103648e+02,1.141025689151840e+03,1.713283152422182e+04,
212,3.923076923081121e+00,4.166666666665623e-01,-6.313923961975937e-04,-9.229686748556259e-03,-1.800819139381872e-04,-2.653988629428449e-03,-6.483296595538587e-04,-5.276276537612412e-03,-1.635591663018829e+04,-8.943698101145774e+02,1.312664883389175e+03,1.568285007432208e+04,
213,4.038461538465864e+00,4.166666666665558e-01,-6.910948885577403e-04,-8.745445016680238e-03,-1.976891618800857e-04,-2.514859757486236e-03,-6.605103298189843e-04,-4.770679406599092e-03,-1.462972695511858e+04,-8.909328472124359e+02,1.487299999770956e+03,1.405712305902994e+04,
214,4.153846153850605e+00,4.166666666665494e-01,-7.439401351773877e-04,-8.219575538731396e-03,-2.133995270201207e-04,-2.363339844809655e-03,-6.587499648638955e-04,-4.266955226303239e-03,-1.269875781543254e+04,-8.873625610814548e+02,1.665025086939231e+03,1.227184957596267e+04,
215,4.269230769235347e+00,4.166666666665430e-01,-7.891290781188761e-04,-7.657207242805622e-03,-2.269425303340966e-04,-2.200900553546966e-03,-6.444504721263356e-04,-3.775611746246172e-03,-1.056257941535876e+04,-8.837568418794588e+02,1.845840688594544e+03,1.035896316238151e+04,
216,4.384615384620089e+00,4.166666666665364e-01,-8.258534384410046e-04,-7.064015857343098e-03,-2.380424534246577e-04,-2.029202428230484e-03,-6.191047386973056e-04,-3.305867107424088e-03,-8.220770576124785e+03,-8.802264741181650e+02,2.029645349345044e+03,8.388171951621880e+03,
217,4.500000000004830e+00,4.166666666665300e-01,-8.532959781260933e-04,-6.446225422759659e-03,-2.464237745352428e-04,-1.850093168738187e-03,-5.856449966194348e-04,-2.865044546994353e-03,-5.672925166913945e+03,-8.768947512165104e+02,2.216227422641160e+03,6.530586780968585e+03,
218,4.615384615389075e+00,4.166666666665234e-01,-8.706310676837166e-04,-5.810609766913656e-03,-2.518118069488817e-04,-1.665607228585268e-03,-5.449368777873527e-04,-2.460430148145174e-03,-2.918656625026184e+03,-8.738977471293881e+02,2.405256504812665e+03,5.227052160110163e+03,
219,4.730769230773319e+00,4.166666666665170e-01,-8.770255743873063e-04,-5.164493947618322e-03,-2.539309460123550e-04,-1.477962692918218e-03,-4.984163502746072e-04,-2.096074684072704e-03,4.239926210403775e+01,-8.713861350968036e+02,2.596275364918541e+03,5.272341684116187e+03,
220,4.846153846157561e+00,4.166666666665105e-01,-8.716400931170630e-04,-4.515755639193274e-03,-2.525111706133962e-04,-1.289557612485662e-03,-4.508569965633297e-04,-1.771776814129980e-03,3.210578945027842e+03,-8.695252924174038e+02,2.788689798222312e+03,6.910456840995061e+03,
221,4.961538461541807e+00,4.166666666665041e-01,-8.536305790379686e-04,-3.872826566446514e-03,-2.472912702190097e-04,-1.102968082564857e-03,-4.045442499171126e-04,-1.485191102801636e-03,6.586196005016343e+03,-8.684987878850474e+02,2.981757207762911e+03,9.546516570953794e+03,
222,5.076923076926048e+00,4.166666666664975e-01,-8.221502803292791e-04,-3.244693850654792e-03,-2.380209035031832e-04,-9.209395605746796e-04,-3.610918234581727e-04,-1.233182214928770e-03,1.016943933638636e+04,-8.685514138416786e+02,3.174526452349025e+03,1.273372343773708e+04,
223,5.192307692310293e+00,4.166666666664911e-01,-7.763528585031189e-04,-2.640902599590867e-03,-2.244687068675333e-04,-7.463768983049214e-04,-3.217887901988569e-04,-1.011026320359462e-03,1.396057518635242e+04,-8.698323420264242e+02,3.365854763131462e+03,1.628670932397871e+04,
224,5.307692307694536e+00,4.166666666664846e-01,-7.153939908035551e-04,-2.071555281886725e-03,-2.064262232140677e-04,-5.823328532373030e-04,-2.856388183734224e-04,-8.124826896658613e-04,1.795789427806585e+04,-8.732891364055049e+02,3.553780246156358e+03,2.012786339732426e+04,
225,5.423076923078781e+00,4.166666666664781e-01,-6.384491137274388e-04,-1.547331676063095e-03,-1.837171529601044e-04,-4.319957478813474e-04,-2.515964109211605e-04,-6.319056872168586e-04,2.216796057054195e+04,-8.763414083480944e+02,3.736396420920297e+03,2.422565760823304e+04,
226,5.538461538463025e+00,4.166666666664717e-01,-5.446472122953970e-04,-1.079447415298531e-03,-1.561827941577524e-04,-2.986575254890000e-04,-2.160485104956827e-04,-4.648571482316126e-04,2.655824751342473e+04,-9.129198813131720e+02,3.897465494673948e+03,2.855566471224943e+04,
227,5.653846153847268e+00,4.166666666664652e-01,-4.333620768039688e-04,-6.798492193060426e-04,-1.237598312469066e-04,-1.857518152899469e-04,-1.750410805766984e-04,-3.106870483585491e-04,3.130372424121753e+04,-8.619260771829826e+02,4.044983207749152e+03,3.316740292831969e+04,
228,5.769230769231512e+00,4.166666666664588e-01,-3.026913392102462e-04,-3.602827198357748e-04,-8.608948580251463e-05,-9.660754220863649e-05,-1.253284028079993e-04,-1.739415467765544e-04,3.627185401164053e+04,-1.378990757652999e+03,4.186287972559043e+03,3.857053460607213e+04,
229,5.884615384615757e+00,4.166666666664524e-01,-1.515745631927425e-04,-1.268090700156718e-04,-4.302836257753703e-05,-3.295174841856943e-05,-6.438481833274532e-05,-6.441404455327464e-05,3.930076935215048e+04,-1.855997673822962e+02,5.289260023415824e+03,4.087882621388743e+04,
230,1.153846153847396e-01,3.750000000001638e-01,1.094198283454365e-04,-1.135205904874386e-04,3.129127599725151e-05,-2.935720486135298e-05,4.605565140127596e-05,-6.035674488712735e-05,2.904320317690733e+04,8.981518580453942e+02,-6.153314281962984e+03,3.071802435626045e+04,
231,2.307692307694792e-01,3.750000000001540e-01,2.212943703391586e-04,-3.450594414079652e-04,6.326983353974932e-05,-9.252177445070667e-05,9.073389721682418e-05,-1.686871218465777e-04,2.712316400976802e+04,-1.206448736498593e+03,-5.885847570786204e+03,3.067800131787518e+04,
232,3.461538461542188e-01,3.750000000001443e-01,3.204812639058797e-04,-6.669215619611604e-04,9.184000939394731e-05,-1.822584375697649e-04,1.294493154262700e-04,-3.057801638848382e-04,2.365307645300918e+04,-9.004573510168000e+02,-5.516765008607015e+03,2.691867022915898e+04,
233,4.615384615389585e-01,3.750000000001347e-01,4.045426365311743e-04,-1.068255252088984e-03,1.162961936084392e-04,-2.956061958645609e-04,1.616709514708260e-04,-4.604258597074115e-04,2.001919032895954e+04,-8.105104789335462e+02,-5.310287003878424e+03,2.338103992555897e+04,
234,5.769230769236980e-01,3.750000000001250e-01,4.751063486412532e-04,-1.537672983809967e-03,1.369748998305505e-04,-4.293424262102920e-04,1.899028745002648e-04,-6.282172714531289e-04,1.668005016192744e+04,-7.984605766304520e+02,-5.073003055304504e+03,2.020989306340830e+04,
235,6.923076923084376e-01,3.750000000001152e-01,5.329823970810674e-04,-2.063365248926220e-03,1.540116198341330e-04,-5.800704525623072e-04,2.161977456947660e-04,-8.090553313182989e-04,1.352407070605874e+04,-7.865464350010523e+02,-4.829100657754998e+03,1.726483754945042e+04,
236,8.076923076931779e-01,3.750000000001055e-01,5.787999778843915e-04,-2.634102756203223e-03,1.675197390443344e-04,-7.444948368454898e-04,2.433612741322853e-04,-1.007455310892446e-03,1.052384105748002e+04,-7.829122459936751e+02,-4.578993813314448e+03,1.455030610107915e+04,
237,9.230769230779170e-01,3.750000000000959e-01,6.132030978321974e-04,-3.239223686386743e-03,1.776394370889633e-04,-9.194304024843869e-04,2.729189756016072e-04,-1.229551585925945e-03,7.680669690741172e+03,-7.806383533016299e+02,-4.326400563432820e+03,1.210226016731051e+04,
238,1.038461538462657e+00,3.750000000000862e-01,6.368335313702897e-04,-3.868624437153495e-03,1.845317366034208e-04,-1.101822544426376e-03,3.051162833805584e-04,-1.480990761176251e-03,4.993371645514488e+03,-7.804519777886570e+02,-4.072568302754143e+03,9.984001680458819e+03,
239,1.153846153847396e+00,3.750000000000763e-01,6.503391582850705e-04,-4.512761831262892e-03,1.883776074233765e-04,-1.288765182017199e-03,3.395310026633608e-04,-1.767400353920661e-03,2.462190703027220e+03,-7.817148023661682e+02,-3.818585749921222e+03,8.297548520251461e+03,
240,1.269230769232136e+00,3.750000000000667e-01,6.543674341789773e-04,-5.162648790600230e-03,1.893714735677988e-04,-1.477511278968744e-03,3.752562423182931e-04,-2.091464997992979e-03,8.682957139869660e+01,-7.841579593654421e+02,-3.565180976424300e+03,7.183361389863210e+03,
241,1.384615384616876e+00,3.750000000000570e-01,6.495634837078790e-04,-5.809853084798311e-03,1.877156194993251e-04,-1.665484075065170e-03,4.095697602216623e-04,-2.456329142137331e-03,-2.132977575832628e+03,-7.875162203468697e+02,-3.312936768136646e+03,6.761099494741391e+03,
242,1.500000000001616e+00,3.750000000000472e-01,6.365679949548331e-04,-6.446495844723216e-03,1.836189667579424e-04,-1.850282707493875e-03,4.386983007257975e-04,-2.862086758607957e-03,-4.197536874734698e+03,-7.915667326233113e+02,-3.062313905353349e+03,7.007973917519684e+03,
243,1.615384615386260e+00,3.750000000000375e-01,6.160156565864496e-04,-7.065250349298731e-03,1.772936274506659e-04,-2.029687995173966e-03,4.623041315597061e-04,-3.302934312099418e-03,-6.107169137640147e+03,-7.961028011568956e+02,-2.813671682902598e+03,7.737856226836821e+03,
244,1.730769230770905e+00,3.750000000000278e-01,5.885339385369356e-04,-7.659340745599460e-03,1.689494510946133e-04,-2.201664854504810e-03,4.803255806757487e-04,-3.773008347585282e-03,-7.862210691121132e+03,-8.009365035600212e+02,-2.567272661402621e+03,8.730701508118234e+03,
245,1.846153846155551e+00,3.750000000000181e-01,5.547422300509685e-04,-8.222540728558578e-03,1.587959962031466e-04,-2.364362477433856e-03,4.905777693941756e-04,-4.265409005540820e-03,-9.463008764035087e+03,-8.058963687012422e+02,-2.323288260712477e+03,9.825287191471836e+03,
246,1.961538461540195e+00,3.750000000000084e-01,5.152512960323844e-04,-8.749172169448444e-03,1.470425754045681e-04,-2.516118196460337e-03,4.916768396136142e-04,-4.770449714732130e-03,-1.090991791540148e+04,-8.108273889163484e+02,-2.081804412194414e+03,1.092370211533939e+04,
247,2.076923076924841e+00,3.749999999999987e-01,4.706630345253593e-04,-9.234103698140705e-03,1.338933978002076e-04,-2.655459506689100e-03,4.822579515999745e-04,-5.277816854960047e-03,-1.220329500033196e+04,-8.155910894583087e+02,-1.842826792445025e+03,1.196928747710322e+04,
248,2.192307692309487e+00,3.749999999999890e-01,4.215705103621488e-04,-9.672749258615302e-03,1.195450422074240e-04,-2.781105556364055e-03,4.605050276469299e-04,-5.776438276714559e-03,-1.334349316570008e+04,-8.200650791819434e+02,-1.606286173371348e+03,1.292891612321958e+04,
249,2.307692307694132e+00,3.749999999999793e-01,3.685582428755255e-04,-1.006106666311302e-02,1.041863714858111e-04,-2.891967563709631e-03,4.251607346834878e-04,-6.252884420848330e-03,-1.433085455359272e+04,-8.241435185792434e+02,-1.372043939845103e+03,1.378264347920301e+04,
250,2.423076923078777e+00,3.749999999999696e-01,3.122027287868370e-04,-1.039555616501624e-02,8.799746672886850e-05,-2.987144453668035e-03,3.766292938520297e-04,-6.690466251454559e-03,-1.516570095062304e+04,-8.277370239227092e+02,-1.139897456015662e+03,1.451808094771082e+04,
251,2.538461538463421e+00,3.749999999999599e-01,2.530731809396535e-04,-1.067325908309106e-02,7.114561819280619e-05,-3.065913491857873e-03,3.171684070045617e-04,-7.072189467086927e-03,-1.584832373862001e+04,-8.307732931178170e+02,-9.095867399152764e+02,1.512733332524016e+04,
252,2.653846153848066e+00,3.749999999999502e-01,1.917324569757279e-04,-1.089175653867780e-02,5.378374267256902e-05,-3.127715364392585e-03,2.482858470444743e-04,-7.382939538588760e-03,-1.637897480685964e+04,-8.331957211040619e+02,-6.808031101134911e+02,1.560529457851009e+04,
253,2.769230769232712e+00,3.749999999999405e-01,1.287381400609183e-04,-1.104916836209473e-02,3.605301987706058e-05,-3.172137497063964e-03,1.705895413850402e-04,-7.610929349256932e-03,-1.675785897216450e+04,-8.349594145814167e+02,-4.531986673788226e+02,1.594867663630231e+04,
254,2.884615384617358e+00,3.749999999999307e-01,6.464374083069112e-05,-1.114415221186997e-02,1.808450430802441e-05,-3.198898596149163e-03,8.658105770756535e-05,-7.750115498528161e-03,-1.698512756141010e+04,-8.360307028658020e+02,-2.263963619048423e+02,1.615544337359332e+04,
255,3.000000000002002e+00,3.749999999999211e-01,-1.989778557863146e-15,-1.117590294110912e-02,6.395051792761984e-14,-3.207836469483424e-03,-1.634032831891078e-10,-7.797134752747722e-03,-1.706087334744169e+04,-8.363898283495089e+02,2.755314199021086e-08,1.622448351909218e+04,
256,3.115384615386754e+00,3.749999999999113e-01,-6.464374083527274e-05,-1.114415221186703e-02,-1.808450400464715e-05,-3.198898596056497e-03,-8.658051733278620e-05,-7.750115523371575e-03,-1.698512756136117e+04,-8.360307028240258e+02,2.263963618915651e+02,1.615544337358543e+04,
257,3.230769230771505e+00,3.749999999999017e-01,-1.287381400647232e-04,-1.104916836208854e-02,-3.605302001947400e-05,-3.172137497150691e-03,-1.705895091389538e-04,-7.610929462805976e-03,-1.675785897210998e+04,-8.349594145645766e+02,4.531986675248484e+02,1.594867663628129e+04,
258,3.346153846156257e+00,3.749999999998920e-01,-1.917324569796744e-04,-1.089175653866886e-02,-5.378374275578551e-05,-3.127715364421294e-03,-2.482861146003208e-04,-7.382939512959010e-03,-1.637897480677347e+04,-8.331957210147463e+02,6.808031102007953e+02,1.560529457852845e+04,
259,3.461538461541010e+00,3.749999999998823e-01,-2.530731809421074e-04,-1.067325908307953e-02,-7.114561828635718e-05,-3.065913491828652e-03,-3.171682236841804e-04,-7.072189666959341e-03,-1.584832373850986e+04,-8.307732932198062e+02,9.095867397973092e+02,1.512733332500120e+04,
260,3.576923076925762e+00,3.749999999998726e-01,-3.122027287894258e-04,-1.039555616500281e-02,-8.799746702069302e-05,-2.987144453793360e-03,-3.766297815909529e-04,-6.690466262827211e-03,-1.516570095068616e+04,-8.277370239321801e+02,1.139897456049307e+03,1.451808094777437e+04,
261,3.692307692310513e+00,3.749999999998629e-01,-3.685582428777481e-04,-1.006106666309684e-02,-1.041863715714206e-04,-2.891967563559017e-03,-4.251607661131253e-04,-6.252884334654079e-03,-1.433085455356067e+04,-8.241435185749663e+02,1.372043939746156e+03,1.378264347913640e+04,
262,3.807692307695266e+00,3.749999999998532e-01,-4.215705103641172e-04,-9.672749258596881e-03,-1.195450419275403e-04,-2.781105556204770e-03,-4.605045643413045e-04,-5.776438467299197e-03,-1.334349316553851e+04,-8.200650791632793e+02,1.606286173347331e+03,1.292891612306922e+04,
263,3.923076923080018e+00,3.749999999998435e-01,-4.706630345274637e-04,-9.234103698120080e-03,-1.338933974459789e-04,-2.655459506737205e-03,-4.822581126410895e-04,-5.277816893459065e-03,-1.220329500045654e+04,-8.155910895491735e+02,1.842826792305524e+03,1.196928747704938e+04,
264,4.038461538464770e+00,3.749999999998337e-01,-5.152512960339262e-04,-8.749172169425824e-03,-1.470425754628243e-04,-2.516118196354664e-03,-4.916760441900259e-04,-4.770449612296366e-03,-1.090991791517936e+04,-8.108273888265937e+02,2.081804412052806e+03,1.092370211510906e+04,
265,4.153846153849521e+00,3.749999999998240e-01,-5.547422300517570e-04,-8.222540728534065e-03,-1.587959962357920e-04,-2.364362477267749e-03,-4.905767955604018e-04,-4.265408926663217e-03,-9.463008764026439e+03,-8.058963687316632e+02,2.323288260482939e+03,9.825287191220306e+03,
266,4.269230769234271e+00,3.749999999998143e-01,-5.885339385372585e-04,-7.659340745573157e-03,-1.689494504897858e-04,-2.201664854479780e-03,-4.803247536553788e-04,-3.773008568893115e-03,-7.862210691066219e+03,-8.009365036154172e+02,2.567272661544512e+03,8.730701508195913e+03,
267,4.384615384619025e+00,3.749999999998045e-01,-6.160156565867043e-04,-7.065250349270248e-03,-1.772936272251825e-04,-2.029687995204491e-03,-4.623044287665822e-04,-3.302934209767910e-03,-6.107169137729807e+03,-7.961028012689897e+02,2.813671682919600e+03,7.737856226846154e+03,
268,4.500000000003777e+00,3.749999999997949e-01,-6.365679949550563e-04,-6.446495844693693e-03,-1.836189663396073e-04,-1.850282707472598e-03,-4.386976603533320e-04,-2.862086800633940e-03,-4.197536874678717e+03,-7.915667326463413e+02,3.062313905215503e+03,7.007973917240342e+03,
269,4.615384615388101e+00,3.749999999997852e-01,-6.495634837067896e-04,-5.809853084770971e-03,-1.877156197158548e-04,-1.665484075206390e-03,-4.095703809730497e-04,-2.456329014852536e-03,-2.132977575693624e+03,-7.875162203350574e+02,3.312936767940595e+03,6.761099494331821e+03,
270,4.730769230772427e+00,3.749999999997755e-01,-6.543674341772896e-04,-5.162648790574886e-03,-1.893714733726084e-04,-1.477511278862061e-03,-3.752565456681883e-04,-2.091465019017726e-03,8.682957165776332e+01,-7.841579591984370e+02,3.565180976413420e+03,7.183361389852773e+03,
271,4.846153846156752e+00,3.749999999997658e-01,-6.503391582838193e-04,-4.512761831240265e-03,-1.883776066508343e-04,-1.288765181863984e-03,-3.395301588686222e-04,-1.767400327176757e-03,2.462190702952761e+03,-7.817148023718864e+02,3.818585749825210e+03,8.297548520047845e+03,
272,4.961538461541076e+00,3.749999999997561e-01,-6.368335313676300e-04,-3.868624437134340e-03,-1.845317362900576e-04,-1.101822544549447e-03,-3.051158555681550e-04,-1.480990993907303e-03,4.993371645781990e+03,-7.804519776311062e+02,4.072568302812309e+03,9.984001680617310e+03,
273,5.076923076925402e+00,3.749999999997464e-01,-6.132030978291439e-04,-3.239223686370960e-03,-1.776394367670607e-04,-9.194304025363792e-04,-2.729193782578287e-04,-1.229551248508385e-03,7.680669690714876e+03,-7.806383532046475e+02,4.326400563319966e+03,1.210226016706295e+04,
274,5.192307692309725e+00,3.749999999997366e-01,-5.787999778821933e-04,-2.634102756190172e-03,-1.675197390387413e-04,-7.444948369488424e-04,-2.433617615795610e-04,-1.007455251956000e-03,1.052384105729728e+04,-7.829122460836265e+02,4.578993813349422e+03,1.455030610105108e+04,
275,5.307692307694049e+00,3.749999999997269e-01,-5.329823970782482e-04,-2.063365248915234e-03,-1.540116202889600e-04,-5.800704526592510e-04,-2.161975025844498e-04,-8.090552623540659e-04,1.352407070601303e+04,-7.865464350993997e+02,4.829100657806724e+03,1.726483754955192e+04,
276,5.423076923078373e+00,3.749999999997172e-01,-4.751063486393683e-04,-1.537672983800670e-03,-1.369748998177798e-04,-4.293424260840521e-04,-1.899017579384388e-04,-6.282175938446805e-04,1.668005016197587e+04,-7.984605766638033e+02,5.073003055280768e+03,2.020989306345519e+04,
277,5.538461538462698e+00,3.749999999997075e-01,-4.045426365280449e-04,-1.068255252082340e-03,-1.162961943286623e-04,-2.956061959394193e-04,-1.616719003057715e-04,-4.604257306828548e-04,2.001919032906916e+04,-8.105104788484916e+02,5.310287003916852e+03,2.338103992561576e+04,
278,5.653846153847026e+00,3.749999999996977e-01,-3.204812639039442e-04,-6.669215619567996e-04,-9.184000923933063e-05,-1.822584373017417e-04,-1.294487854181253e-04,-3.057800206827741e-04,2.365307645284860e+04,-9.004573510084040e+02,5.516765008614200e+03,2.691867022901074e+04,
279,5.769230769231351e+00,3.749999999996882e-01,-2.212943703383558e-04,-3.450594414059343e-04,-6.326983345251519e-05,-9.252177432063753e-05,-9.073344895568528e-05,-1.686868122745091e-04,2.712316400970801e+04,-1.206448736568628e+03,5.885847570573398e+03,3.067800131772112e+04,
280,5.884615384615675e+00,3.749999999996784e-01,-1.094198283447219e-04,-1.135205904869810e-04,-3.129127628972804e-05,-2.935720487957101e-05,-4.605549713549334e-05,-6.035684376496449e-05,2.904320317702892e+04,8.981518580146287e+02,6.153314282059324e+03,3.071802435647724e+04,
281,1.153846153846743e-01,3.333333333336663e-01,7.128836107889999e-05,-1.050095550863064e-04,2.057667011444522e-05,-2.706455619191540e-05,2.997641587223752e-05,-5.748064766131608e-05,1.916032742535153e+04,9.515068433491685e+02,-6.454999984280068e+03,2.232104939683113e+04,
282,2.307692307693486e-01,3.333333333336522e-01,1.451441242697593e-04,-3.340915244413240e-04,4.179822684143399e-05,-8.960542919689368e-05,5.909134111591912e-05,-1.649238686247486e-04,1.803960075804115e+04,-8.987863782196212e+02,-7.003306977367964e+03,2.355520625678941e+04,
283,3.461538461540227e-01,3.333333333336382e-01,2.117964730111761e-04,-6.572299842112355e-04,6.102558960475726e-05,-1.796748567937152e-04,8.579948809140910e-05,-3.016130208711188e-04,1.585398303561858e+04,-8.376065601283620e+02,-6.626787854227516e+03,2.131352697918852e+04,
284,4.615384615386972e-01,3.333333333336241e-01,2.682960944681928e-04,-1.059921951375704e-03,7.745898550100235e-05,-2.933638019029741e-04,1.087094427591124e-04,-4.566827343757585e-04,1.341903777164970e+04,-7.160753099532184e+02,-6.314167398234926e+03,1.895458418329014e+04,
285,5.769230769233712e-01,3.333333333336100e-01,3.154848289223512e-04,-1.530440558044079e-03,9.127039170838522e-05,-4.273774320205956e-04,1.285190837556668e-04,-6.248544448801348e-04,1.116102161708332e+04,-6.946943837214806e+02,-6.024944718628731e+03,1.690437331999823e+04,
286,6.923076923080455e-01,3.333333333335959e-01,3.541037240495044e-04,-2.057161276025273e-03,1.026035929835189e-04,-5.783716296342081e-04,1.466164905191756e-04,-8.061193547816484e-04,9.051738677859517e+03,-6.845265958835955e+02,-5.734197099995910e+03,1.504389999325647e+04,
287,8.076923076927204e-01,3.333333333335818e-01,3.846081655197952e-04,-2.628877519420240e-03,1.115446136527692e-04,-7.430572065336448e-04,1.645082291503325e-04,-1.004583795187599e-03,7.050827827657530e+03,-6.784621783059323e+02,-5.440956638990290e+03,1.334758257460042e+04,
288,9.230769230773943e-01,3.333333333335678e-01,4.074393223312425e-04,-3.234933634741321e-03,1.181925907109994e-04,-9.182500157271158e-04,1.841884001278839e-04,-1.226744109905607e-03,5.154844820147928e+03,-6.758688674568615e+02,-5.145439790524490e+03,1.182790871872423e+04,
289,1.038461538462069e+00,3.333333333335539e-01,4.230432526255169e-04,-3.865229608753897e-03,1.226634792842613e-04,-1.100894945473984e-03,2.053346436574677e-04,-1.477837134952112e-03,3.363556589903453e+03,-6.754844052533605e+02,-4.849143544962008e+03,1.050574246015693e+04,
290,1.153846153846742e+00,3.333333333335398e-01,4.318681314235555e-04,-4.510223240342458e-03,1.250880913848386e-04,-1.288085121153458e-03,2.282156587450718e-04,-1.763754404831576e-03,1.676659000153591e+03,-6.769374864532555e+02,-4.552814063487053e+03,9.404885964673367e+03,
291,1.269230769231417e+00,3.333333333335258e-01,4.343624145988917e-04,-5.160927928989726e-03,1.256055881764523e-04,-1.477072678397263e-03,2.524900305658105e-04,-2.087762473626886e-03,9.395424539375412e+01,-6.797973143445494e+02,-4.257000586425409e+03,8.549088106196037e+03,
292,1.384615384616092e+00,3.333333333335117e-01,4.309722161423862e-04,-5.808910931583804e-03,1.243602753953155e-04,-1.665280012079121e-03,2.748277279259221e-04,-2.453260984201075e-03,-1.384815330124640e+03,-6.837691349425627e+02,-3.962107938790709e+03,7.955165808598379e+03,
293,1.500000000000766e+00,3.333333333334976e-01,4.221395019171666e-04,-6.446292261325794e-03,1.215005069074527e-04,-1.850304349881725e-03,2.930752424138371e-04,-2.859815106672798e-03,-2.759904594008763e+03,-6.885834130924103e+02,-3.668463728398650e+03,7.623704869734846e+03,
294,1.615384615385385e+00,3.333333333334835e-01,4.083005023008923e-04,-7.065743576369590e-03,1.171746901172010e-04,-2.029925613639265e-03,3.076427568761120e-04,-3.300538144356289e-03,-4.031582564266111e+03,-6.939955161536167e+02,-3.376325462858605e+03,7.532448594468983e+03,
295,1.730769230770005e+00,3.333333333334695e-01,3.898845262015721e-04,-7.660487040298028e-03,1.115286479844733e-04,-2.202107928270525e-03,3.186578335141680e-04,-3.770567307240570e-03,-5.200124857732655e+03,-6.997798868363947e+02,-3.085884531990683e+03,7.638313834622710e+03,
296,1.846153846154625e+00,3.333333333334554e-01,3.673131183413546e-04,-8.224294114988930e-03,1.047067743871338e-04,-2.364997824395394e-03,3.251599846743049e-04,-4.263482668015715e-03,-6.265810973607038e+03,-7.057302554615782e+02,-2.797268638086816e+03,7.887543656094031e+03,
297,1.961538461539244e+00,3.333333333334413e-01,3.409995399046142e-04,-8.751484295043490e-03,9.685193676295961e-05,-2.516930431462349e-03,3.259713515053622e-04,-4.769540492470937e-03,-7.228920940119059e+03,-7.116596039288388e+02,-2.510545074285238e+03,8.227152703351956e+03,
298,2.076923076923863e+00,3.333333333334273e-01,3.113485432090448e-04,-9.236923784964820e-03,8.810241877075226e-05,-2.656432269028079e-03,3.195960929238491e-04,-5.278399731190610e-03,-8.089731984125618e+03,-7.173996000485017e+02,-2.225723249746441e+03,8.612006776539343e+03,
299,2.192307692308483e+00,3.333333333334133e-01,2.787564147527836e-04,-9.676024139890323e-03,7.858933181034709e-05,-2.782221985762577e-03,3.046781946393133e-04,-5.778637559217772e-03,-8.848514527959735e+03,-7.228004813084615e+02,-1.942757102401511e+03,9.006911202164250e+03,
300,2.307692307693103e+00,3.333333333333992e-01,2.436112650741501e-04,-1.006474089346306e-02,6.843687170956866e-05,-2.893209411182565e-03,2.804008903167750e-04,-6.256666158819499e-03,-9.505527179264054e+03,-7.277319327646342e+02,-1.661547748810837e+03,9.385768645975739e+03,
301,2.423076923077722e+00,3.333333333333851e-01,2.062935440131071e-04,-1.039957219503995e-02,5.776239518826632e-05,-2.988492499352269e-03,2.475128760955006e-04,-6.695019778236988e-03,-1.006101024627619e+04,-7.320832492063605e+02,-1.381946108671813e+03,9.729747124450401e+03,
302,2.538461538462341e+00,3.333333333333711e-01,1.671767597762881e-04,-1.067755748751768e-02,4.667341909944087e-05,-3.067348973730596e-03,2.082336549184767e-04,-7.076823523632141e-03,-1.051517905943786e+04,-7.357641907019386e+02,-1.103757020188465e+03,1.002547123148406e+04,
303,2.653846153846961e+00,3.333333333333570e-01,1.266283742801404e-04,-1.089627629237739e-02,3.526702983412931e-05,-3.129219221094952e-03,1.633959374630521e-04,-7.388293952773540e-03,-1.086821837284893e+04,-7.387035221953586e+02,-8.267457177475311e+02,1.026358149170487e+04,
304,2.769230769231580e+00,3.333333333333430e-01,8.501083696435157e-05,-1.105384715916295e-02,2.363241166000176e-05,-3.173689778748693e-03,1.125825264624899e-04,-7.617466280902228e-03,-1.112027792709386e+04,-7.408449433362159e+02,-5.506454289859230e+02,1.043769469845561e+04,
305,2.884615384616200e+00,3.333333333333289e-01,4.268272887751509e-05,-1.114892681399051e-02,1.185164982891569e-05,-3.200479393436548e-03,5.719552963798951e-05,-7.757050180361567e-03,-1.127146835823148e+04,-7.421464362965035e+02,-2.751655917729042e+02,1.054369406552198e+04,
306,3.000000000000819e+00,3.333333333333148e-01,-1.139038590843450e-15,-1.118070954202375e-02,2.154213071036920e-14,-3.209426623549757e-03,2.368596285610939e-10,-7.803956564570216e-03,-1.132185754807186e+04,-7.425829217528831e+02,6.363279680954292e-08,1.057927462631898e+04,
307,3.115384615385582e+00,3.333333333333008e-01,-4.268272887991363e-05,-1.114892681398879e-02,-1.185164978967019e-05,-3.200479393346096e-03,-5.719531001092083e-05,-7.757050160687107e-03,-1.127146835819211e+04,-7.421464362992872e+02,2.751655917703210e+02,1.054369406547962e+04,
308,3.230769230770343e+00,3.333333333332867e-01,-8.501083696622234e-05,-1.105384715915933e-02,-2.363241161562012e-05,-3.173689778779193e-03,-1.125825029185959e-04,-7.617466282018303e-03,-1.112027792696016e+04,-7.408449432374230e+02,5.506454288529574e+02,1.043769469839284e+04,
309,3.346153846155104e+00,3.333333333332726e-01,-1.266283742820756e-04,-1.089627629237203e-02,-3.526702990316068e-05,-3.129219221125472e-03,-1.633954870501294e-04,-7.388294039536765e-03,-1.086821837277705e+04,-7.387035222204885e+02,8.267457178857088e+02,1.026358149165365e+04,
310,3.461538461539867e+00,3.333333333332587e-01,-1.671767597780623e-04,-1.067755748751078e-02,-4.667341932356947e-05,-3.067348973674672e-03,-2.082338349958651e-04,-7.076823720349526e-03,-1.051517905920639e+04,-7.357641906241290e+02,1.103757020054935e+03,1.002547123127536e+04,
311,3.576923076924628e+00,3.333333333332447e-01,-2.062935440139933e-04,-1.039957219503225e-02,-5.776239500335781e-05,-2.988492499372844e-03,-2.475131037692617e-04,-6.695019622930409e-03,-1.006101024617716e+04,-7.320832492616698e+02,1.381946108715399e+03,9.729747124327192e+03,
312,3.692307692309390e+00,3.333333333332306e-01,-2.436112650749235e-04,-1.006474089345385e-02,-6.843687167915383e-05,-2.893209411103774e-03,-2.804007871424055e-04,-6.256666102872338e-03,-9.505527179041601e+03,-7.277319326117365e+02,1.661547748946440e+03,9.385768646006711e+03,
313,3.807692307694152e+00,3.333333333332165e-01,-2.787564147528553e-04,-9.676024139879457e-03,-7.858933161481639e-05,-2.782221985471458e-03,-3.046779352276840e-04,-5.778637561738865e-03,-8.848514527994384e+03,-7.228004813747576e+02,1.942757102245582e+03,9.006911202001169e+03,
314,3.923076923078913e+00,3.333333333332025e-01,-3.113485432094177e-04,-9.236923784952580e-03,-8.810241870940866e-05,-2.656432269022343e-03,-3.195959220242702e-04,-5.278399645219217e-03,-8.089731983972699e+03,-7.173996000356568e+02,2.225723249689338e+03,8.612006776360402e+03,
315,4.038461538463675e+00,3.333333333331884e-01,-3.409995399040004e-04,-8.751484295029767e-03,-9.685193663480787e-05,-2.516930431444092e-03,-3.259717968190534e-04,-4.769540497098687e-03,-7.228920939832611e+03,-7.116596038950560e+02,2.510545074414079e+03,8.227152703309072e+03,
316,4.153846153848438e+00,3.333333333331743e-01,-3.673131183401582e-04,-8.224294114973909e-03,-1.047067741499415e-04,-2.364997824290932e-03,-3.251611864584074e-04,-4.263482659568329e-03,-6.265810973421772e+03,-7.057302554076776e+02,2.797268638159428e+03,7.887543656104435e+03,
317,4.269230769233199e+00,3.333333333331603e-01,-3.898845262004138e-04,-7.660487040281552e-03,-1.115286479078295e-04,-2.202107928153237e-03,-3.186578567888193e-04,-3.770567182585159e-03,-5.200124857771467e+03,-6.997798869270473e+02,3.085884531888868e+03,7.638313834427633e+03,
318,4.384615384617961e+00,3.333333333331462e-01,-4.083005022998822e-04,-7.065743576351274e-03,-1.171746897876167e-04,-2.029925613661456e-03,-3.076425029992742e-04,-3.300538289282476e-03,-4.031582564145303e+03,-6.939955161660998e+02,3.376325462686286e+03,7.532448594100964e+03,
319,4.500000000002723e+00,3.333333333331321e-01,-4.221395019151669e-04,-6.446292261306674e-03,-1.215005069172041e-04,-1.850304349886981e-03,-2.930755030316152e-04,-2.859815347522865e-03,-2.759904593780859e+03,-6.885834129974671e+02,3.668463728401653e+03,7.623704869704502e+03,
320,4.615384615387129e+00,3.333333333331181e-01,-4.309722161401872e-04,-5.808910931566168e-03,-1.243602755441192e-04,-1.665280012162749e-03,-2.748274990911820e-04,-2.453260735936237e-03,-1.384815330223554e+03,-6.837691350188353e+02,3.962107938633573e+03,7.955165808287326e+03,
321,4.730769230771536e+00,3.333333333331040e-01,-4.343624145963971e-04,-5.160927928973583e-03,-1.256055881021563e-04,-1.477072678325616e-03,-2.524897406243819e-04,-2.087762406919994e-03,9.395424542190790e+01,-6.797973143177489e+02,4.257000586568527e+03,8.549088106481222e+03,
322,4.846153846155940e+00,3.333333333330899e-01,-4.318681314211422e-04,-4.510223240328152e-03,-1.250880917055982e-04,-1.288085121050145e-03,-2.282157675929778e-04,-1.763754595373158e-03,1.676659000022776e+03,-6.769374863733140e+02,4.552814063408761e+03,9.404885964469022e+03,
323,4.961538461540347e+00,3.333333333330759e-01,-4.230432526232213e-04,-3.865229608742159e-03,-1.226634792680743e-04,-1.100894945399412e-03,-2.053350949120626e-04,-1.477837284920159e-03,3.363556589954627e+03,-6.754844051789398e+02,4.849143544985102e+03,1.050574246019063e+04,
324,5.076923076924750e+00,3.333333333330618e-01,-4.074393223280046e-04,-3.234933634731977e-03,-1.181925904878269e-04,-9.182500157668940e-04,-1.841891484477026e-04,-1.226743744439186e-03,5.154844820208481e+03,-6.758688673852390e+02,5.145439790699377e+03,1.182790871902309e+04,
325,5.192307692309160e+00,3.333333333330477e-01,-3.846081655163184e-04,-2.628877519412369e-03,-1.115446130848306e-04,-7.430572066641390e-04,-1.645069829743636e-04,-1.004583899855442e-03,7.050827827440935e+03,-6.784621784195818e+02,5.440956639254156e+03,1.334758257497105e+04,
326,5.307692307693563e+00,3.333333333330337e-01,-3.541037240470348e-04,-2.057161276018346e-03,-1.026035932171398e-04,-5.783716297448532e-04,-1.466166857236136e-04,-8.061193855951753e-04,9.051738677824396e+03,-6.845265958897260e+02,5.734197099957579e+03,1.504389999317927e+04,
327,5.423076923077969e+00,3.333333333330197e-01,-3.154848289191824e-04,-1.530440558037916e-03,-9.127039125427633e-05,-4.273774318557654e-04,-1.285192684470849e-04,-6.248544414710813e-04,1.116102161693368e+04,-6.946943837616786e+02,6.024944718630773e+03,1.690437331992438e+04,
328,5.538461538462375e+00,3.333333333330056e-01,-2.682960944657092e-04,-1.059921951371247e-03,-7.745898557582404e-05,-2.933638020319390e-04,-1.087090299494341e-04,-4.566827591098387e-04,1.341903777159842e+04,-7.160753099316343e+02,6.314167398211068e+03,1.895458418320402e+04,
329,5.653846153846782e+00,3.333333333329915e-01,-2.117964730092511e-04,-6.572299842082820e-04,-6.102558969420419e-05,-1.796748566505894e-04,-8.579917710682834e-05,-3.016130151240651e-04,1.585398303556622e+04,-8.376065600962517e+02,6.626787854046426e+03,2.131352697889715e+04,
330,5.769230769231187e+00,3.333333333329775e-01,-1.451441242682199e-04,-3.340915244399250e-04,-4.179822698288285e-05,-8.960542906623932e-05,-5.909225100265944e-05,-1.649238609939457e-04,1.803960075788462e+04,-8.987863782782243e+02,7.003306977247124e+03,2.355520625656696e+04,
331,5.884615384615594e+00,3.333333333329634e-01,-7.128836107798582e-05,-1.050095550858346e-04,-2.057666985953600e-05,-2.706455616390230e-05,-2.997617665058899e-05,-5.748047783600038e-05,1.916032742502674e+04,9.515068431573916e+02,6.454999984251521e+03,2.232104939668960e+04,
332,1.153846153846089e-01,2.916666666671686e-01,3.532020916790930e-05,-1.001056089549005e-04,1.041382472325825e-05,-2.576505949723771e-05,1.532467597987486e-05,-5.799458352171500e-05,9.541232426710463e+03,4.426321572591372e+02,-6.543954387441588e+03,1.593982066909549e+04,
333,2.307692307692178e-01,2.916666666671504e-01,7.231975826961670e-05,-3.272906600055735e-04,2.118256434108407e-05,-8.783310198523032e-05,2.974167852612293e-05,-1.639687183708968e-04,9.041930775315124e+03,-6.532870505736807e+02,-7.609680709340300e+03,1.804511597867566e+04,
334,3.461538461538269e-01,2.916666666671319e-01,1.060650287340039e-04,-6.509713366266808e-04,3.098551297816966e-05,-1.780447660785593e-04,4.393305672846837e-05,-2.999712614660243e-04,7.987220760645115e+03,-6.888224846063238e+02,-7.302722464018098e+03,1.698801777546078e+04,
335,4.615384615384357e-01,2.916666666671135e-01,1.346406741249721e-04,-1.054487787551224e-03,3.932308998865693e-05,-2.919331027147074e-04,5.671895014482825e-05,-4.551275511959752e-04,6.762795114614809e+03,-6.077975398867678e+02,-6.916807740990927e+03,1.567464683436028e+04,
336,5.769230769230447e-01,2.916666666670950e-01,1.583324006811782e-04,-1.525665421267472e-03,4.625245623720562e-05,-4.261022635689914e-04,6.761370732213330e-05,-6.234255173329377e-04,5.617288936024486e+03,-5.818452556700290e+02,-6.587879865529588e+03,1.456124682907465e+04,
337,6.923076923076538e-01,2.916666666670766e-01,1.775799370636188e-04,-2.052977978840408e-03,5.186466816582508e-05,-5.772397934203384e-04,7.694470755511389e-05,-8.051005238694324e-04,4.556297858989983e+03,-5.708944686385319e+02,-6.270049688030189e+03,1.354777448609042e+04,
338,8.076923076922631e-01,2.916666666670582e-01,1.926532760802118e-04,-2.625258609098589e-03,5.621609474106776e-05,-7.420676358600201e-04,8.545091988887566e-05,-1.003824159350265e-03,3.554143778143857e+03,-5.638855333391092e+02,-5.951470188139644e+03,1.259516395333910e+04,
339,9.230769230768714e-01,2.916666666670399e-01,2.037958750690888e-04,-3.231856134593315e-03,5.936689426780401e-05,-9.174030297752245e-04,9.508666844876007e-05,-1.226062118936192e-03,2.605553535965217e+03,-5.607875517834143e+02,-5.631688611122027e+03,1.169997360401003e+04,
340,1.038461538461481e+00,2.916666666670215e-01,2.112560365542450e-04,-3.862674154272618e-03,6.138792697993921e-05,-1.100190680545443e-03,1.055171869138251e-04,-1.476964242178215e-03,1.710118402908197e+03,-5.603539114360402e+02,-5.311503117899807e+03,1.086293266185707e+04,
341,1.153846153846089e+00,2.916666666670030e-01,2.152830710650993e-04,-4.508172121727876e-03,6.236010129518342e-05,-1.287523626176335e-03,1.171118594501850e-04,-1.762113546241698e-03,8.674057865564580e+02,-5.619052575186503e+02,-4.991453161836527e+03,1.008470865855561e+04,
342,1.269230769230698e+00,2.916666666669846e-01,2.161261756193812e-04,-5.159363853171272e-03,6.236810616764896e-05,-1.476653770511048e-03,1.299100877466685e-04,-2.086253154245245e-03,7.717595424435783e+01,-5.650256626058037e+02,-4.671843656054457e+03,9.365730911314400e+03,
343,1.384615384615308e+00,2.916666666669663e-01,2.140324845383471e-04,-5.807816181643857e-03,6.149877534580769e-05,-1.665002517181705e-03,1.405592417361467e-04,-2.452443128021624e-03,-6.607715836649911e+02,-5.693736171583896e+02,-4.352907746354125e+03,8.706295250068226e+03,
344,1.499999999999917e+00,2.916666666669478e-01,2.092452023702413e-04,-6.445648017406234e-03,5.983986065615611e-05,-1.850166328619202e-03,1.484462122811999e-04,-2.859282236527026e-03,-1.346639992884416e+03,-5.746597072863774e+02,-4.034834414614244e+03,8.106510258722546e+03,
345,1.615384615384510e+00,2.916666666669294e-01,2.020020873891250e-04,-7.065529421647902e-03,5.747625539198595e-05,-2.029924277825861e-03,1.544745961802791e-04,-3.299865581748988e-03,-1.980633715706752e+03,-5.806154008217948e+02,-3.717777287000135e+03,7.566209295608314e+03,
346,1.730769230769104e+00,2.916666666669110e-01,1.925342765180794e-04,-7.660680589434378e-03,5.449024057985452e-05,-2.202239191980942e-03,1.587681823295303e-04,-3.769624868660623e-03,-2.562958381963249e+03,-5.869926110258867e+02,-3.401853388718094e+03,7.084833564823326e+03,
347,1.846153846153698e+00,2.916666666668927e-01,1.810654675059270e-04,-8.224870759358113e-03,5.096152424439767e-05,-2.365255660810800e-03,1.616375024412371e-04,-4.262490605351790e-03,-3.093816484932470e+03,-5.935635832857145e+02,-3.087143928048609e+03,6.661313316617272e+03,
348,1.961538461538292e+00,2.916666666668742e-01,1.678114220007050e-04,-8.752417052368275e-03,4.696663454661232e-05,-2.517306655028697e-03,1.622879355481476e-04,-4.769254117050725e-03,-3.573405319795490e+03,-6.001215926810494e+02,-2.773695120256410e+03,6.293961757308383e+03,
349,2.076923076922886e+00,2.916666666668558e-01,1.529797566153007e-04,-9.238183246230514e-03,4.257802070477134e-05,-2.656917406362935e-03,1.591146517825912e-04,-5.279323121943809e-03,-4.001915266341325e+03,-6.064794795340040e+02,-2.461518300740444e+03,5.980407474566623e+03,
350,2.192307692307479e+00,2.916666666668374e-01,1.367699935397179e-04,-9.677578501902128e-03,3.786187277508182e-05,-2.782806080440056e-03,1.512048700415539e-04,-5.780819931472186e-03,-4.379527901255407e+03,-6.124697641361145e+02,-2.150589592651916e+03,5.717592971918131e+03,
351,2.307692307692073e+00,2.916666666668190e-01,1.193738506328204e-04,-1.006655606561033e-02,3.287836804288510e-05,-2.893881066726188e-03,1.382113003162310e-04,-6.260011011158246e-03,-4.706413240907135e+03,-6.179459676204712e+02,-1.840849805251134e+03,5.501861200240210e+03,
352,2.423076923076668e+00,2.916666666668006e-01,1.009757474758361e-04,-1.040161197128059e-02,2.768240723787947e-05,-2.989239227366746e-03,1.210465878340377e-04,-6.698670380480946e-03,-4.982726135992414e+03,-6.227831629972864e+02,-1.532204470863350e+03,5.329137349506405e+03,
353,2.538461538461260e+00,2.916666666667822e-01,8.175350297784944e-05,-1.067978377330561e-02,2.232201578248869e-05,-3.068158290239892e-03,1.015465064937709e-04,-7.080124318866159e-03,-5.208602894544291e+03,-6.268787911233322e+02,-1.224525475123388e+03,5.195194540801454e+03,
354,2.653846153845854e+00,2.916666666667638e-01,6.187919560949630e-05,-1.089864938094386e-02,1.683884783412371e-05,-3.130077884186028e-03,8.006193862275373e-05,-7.391869387410798e-03,-5.384158894607130e+03,-6.301512688972911e+02,-9.176552741740596e+02,5.095974226208878e+03,
355,2.769230769230449e+00,2.916666666667455e-01,4.152015087031552e-05,-1.105632605185523e-02,1.126991713008456e-05,-3.174583558330686e-03,5.564936624479691e-05,-7.621897211684416e-03,-5.509486978794424e+03,-6.325364903044347e+02,-6.114124130047392e+02,5.027916727859349e+03,
356,2.884615384615042e+00,2.916666666667270e-01,2.084002954436876e-05,-1.115146957126949e-02,5.647616440443476e-06,-3.201393887948834e-03,2.847630075319667e-05,-7.761847597532626e-03,-5.584655679036834e+03,-6.339868872953008e+02,-3.055976508497563e+02,4.988254322139474e+03,
357,2.999999999999636e+00,2.916666666667086e-01,-3.616218798237889e-16,-1.118327365172389e-02,2.111964754890457e-13,-3.210347899541961e-03,3.451506173800704e-12,-7.808699486090561e-03,-5.609707163060571e+03,-6.344735133084611e+02,-1.117665533456602e-07,4.975233649752109e+03,
358,3.115384615384408e+00,2.916666666666902e-01,-2.084002954558825e-05,-1.115146957126904e-02,-5.647616226898680e-06,-3.201393888012728e-03,-2.847629303170393e-05,-7.761847634836025e-03,-5.584655678772669e+03,-6.339868872134795e+02,3.055976508743382e+02,4.988254321964528e+03,
359,3.230769230769181e+00,2.916666666666717e-01,-4.152015087185866e-05,-1.105632605185421e-02,-1.126991697130768e-05,-3.174583558286293e-03,-5.564902246982769e-05,-7.621897151407058e-03,-5.509486978858797e+03,-6.325364902420229e+02,6.114124128958042e+02,5.027916727929340e+03,
360,3.346153846153952e+00,2.916666666666534e-01,-6.187919561064827e-05,-1.089864938094216e-02,-1.683884773657783e-05,-3.130077884238216e-03,-8.006213875135096e-05,-7.391869412266530e-03,-5.384158894540892e+03,-6.301512688905652e+02,9.176552741062767e+02,5.095974226104536e+03,
361,3.461538461538723e+00,2.916666666666350e-01,-8.175350297784228e-05,-1.067978377330359e-02,-2.232201581944141e-05,-3.068158290261031e-03,-1.015467344512615e-04,-7.080124312564756e-03,-5.208602894422805e+03,-6.268787910505182e+02,1.224525475159234e+03,5.195194540792326e+03,
362,3.576923076923494e+00,2.916666666666166e-01,-1.009757474764085e-04,-1.040161197127854e-02,-2.768240703382874e-05,-2.989239227362780e-03,-1.210460668624534e-04,-6.698670224177087e-03,-4.982726136015680e+03,-6.227831631059900e+02,1.532204470640280e+03,5.329137349179960e+03,
363,3.692307692308266e+00,2.916666666665981e-01,-1.193738506325151e-04,-1.006655606560794e-02,-3.287836779504849e-05,-2.893881066699169e-03,-1.382113915028463e-04,-6.260010794056884e-03,-4.706413241120397e+03,-6.179459677009133e+02,1.840849805301777e+03,5.501861200406686e+03,
364,3.807692307693038e+00,2.916666666665798e-01,-1.367699935393919e-04,-9.677578501898824e-03,-3.786187299101961e-05,-2.782806080191851e-03,-1.512052360111667e-04,-5.780820087036216e-03,-4.379527901455542e+03,-6.124697642146047e+02,2.150589592668587e+03,5.717592972023359e+03,
365,3.923076923077810e+00,2.916666666665614e-01,-1.529797566148147e-04,-9.238183246226493e-03,-4.257802116832448e-05,-2.656917406339402e-03,-1.591151920100029e-04,-5.279323052676962e-03,-4.001915266425279e+03,-6.064794796089419e+02,2.461518300980470e+03,5.980407474966920e+03,
366,4.038461538462581e+00,2.916666666665430e-01,-1.678114219996364e-04,-8.752417052363541e-03,-4.696663477968670e-05,-2.517306655086720e-03,-1.622878652753095e-04,-4.769254372155435e-03,-3.573405319771716e+03,-6.001215926518878e+02,2.773695120103536e+03,6.293961757041447e+03,
367,4.153846153847354e+00,2.916666666665245e-01,-1.810654675049463e-04,-8.224870759352628e-03,-5.096152385565596e-05,-2.365255660690404e-03,-1.616362101571851e-04,-4.262490442598702e-03,-3.093816484746324e+03,-5.935635832057279e+02,3.087143928147172e+03,6.661313316760140e+03,
368,4.269230769232125e+00,2.916666666665061e-01,-1.925342765159292e-04,-7.660680589427780e-03,-5.449024058960748e-05,-2.202239191905630e-03,-1.587684427781908e-04,-3.769624901096441e-03,-2.562958381684010e+03,-5.869926109804711e+02,3.401853388673229e+03,7.084833564671943e+03,
369,4.384615384616897e+00,2.916666666664878e-01,-2.020020873871747e-04,-7.065529421639753e-03,-5.747625535257871e-05,-2.029924277837602e-03,-1.544748705576253e-04,-3.299865762550266e-03,-1.980633715946311e+03,-5.806154008739583e+02,3.717777287283284e+03,7.566209296199507e+03,
370,4.500000000001668e+00,2.916666666664693e-01,-2.092452023681465e-04,-6.445648017397400e-03,-5.983986060892906e-05,-1.850166328584587e-03,-1.484467449091466e-04,-2.859282218750603e-03,-1.346639992881452e+03,-5.746597072484019e+02,4.034834414838425e+03,8.106510259172206e+03,
371,4.615384615386156e+00,2.916666666664509e-01,-2.140324845344973e-04,-5.807816181636029e-03,-6.149877515196619e-05,-1.665002517358054e-03,-1.405595667604941e-04,-2.452443062902113e-03,-6.607715836592802e+02,-5.693736171733959e+02,4.352907746406906e+03,8.706295250173564e+03,
372,4.730769230770642e+00,2.916666666664326e-01,-2.161261756164651e-04,-5.159363853164145e-03,-6.236810573066013e-05,-1.476653770500760e-03,-1.299102854039351e-04,-2.086253062077161e-03,7.717595424620174e+01,-5.650256626234579e+02,4.671843656087865e+03,9.365730911382396e+03,
373,4.846153846155127e+00,2.916666666664142e-01,-2.152830710616072e-04,-4.508172121721975e-03,-6.236010158677520e-05,-1.287523626021413e-03,-1.171116070201114e-04,-1.762113508024655e-03,8.674057869627560e+02,-5.619052572961986e+02,4.991453161752251e+03,1.008470865841482e+04,
374,4.961538461539615e+00,2.916666666663957e-01,-2.112560365510359e-04,-3.862674154268183e-03,-6.138792710178557e-05,-1.100190680379943e-03,-1.055166822918903e-04,-1.476964295322786e-03,1.710118402876180e+03,-5.603539114197545e+02,5.311503117865180e+03,1.086293266177925e+04,
375,5.076923076924104e+00,2.916666666663773e-01,-2.037958750659317e-04,-3.231856134590216e-03,-5.936689395709757e-05,-9.174030298498333e-04,-9.508621572363289e-05,-1.226061753884335e-03,2.605553536202508e+03,-5.607875517065038e+02,5.631688611483147e+03,1.169997360474872e+04,
376,5.192307692308591e+00,2.916666666663589e-01,-1.926532760766524e-04,-2.625258609095797e-03,-5.621609444458963e-05,-7.420676359817435e-04,-8.545117352824403e-05,-1.003824479547829e-03,3.554143778026867e+03,-5.638855334341034e+02,5.951470188098804e+03,1.259516395325472e+04,
377,5.307692307693076e+00,2.916666666663404e-01,-1.775799370599339e-04,-2.052977978837799e-03,-5.186466784429105e-05,-5.772397934879734e-04,-7.694487165065850e-05,-8.051003000347965e-04,4.556297859094080e+03,-5.708944685169877e+02,6.270049687914753e+03,1.354777448587012e+04,
378,5.423076923077563e+00,2.916666666663220e-01,-1.583324006784336e-04,-1.525665421264557e-03,-4.625245582899371e-05,-4.261022635268044e-04,-6.761296467505435e-05,-6.234256327495400e-04,5.617288935911742e+03,-5.818452556641182e+02,6.587879865621086e+03,1.456124682918972e+04,
379,5.538461538462053e+00,2.916666666663037e-01,-1.346406741222933e-04,-1.054487787549071e-03,-3.932309000076722e-05,-2.919331027908934e-04,-5.671977888319887e-05,-4.551276099769651e-04,6.762795114436877e+03,-6.077975399393947e+02,6.916807741130402e+03,1.567464683454754e+04,
380,5.653846153846540e+00,2.916666666662854e-01,-1.060650287316420e-04,-6.509713366250048e-04,-3.098551336565410e-05,-1.780447659544030e-04,-4.393356635226657e-05,-2.999711844103030e-04,7.987220760203701e+03,-6.888224847319202e+02,7.302722463751066e+03,1.698801777484033e+04,
381,5.769230769231026e+00,2.916666666662669e-01,-7.231975826792463e-05,-3.272906600048257e-04,-2.118256401320249e-05,-8.783310178595430e-05,-2.974103554839498e-05,-1.639687489112441e-04,9.041930774800749e+03,-6.532870507060713e+02,7.609680709353619e+03,1.804511597849289e+04,
382,5.884615384615512e+00,2.916666666662485e-01,-3.532020916630781e-05,-1.001056089546377e-04,-1.041382476279204e-05,-2.576505953151325e-05,-1.532557550469603e-05,-5.799461942332325e-05,9.541232426337019e+03,4.426321571706887e+02,6.543954387475645e+03,1.593982066898874e+04,
383,1.153846153845436e-01,2.500000000006711e-01,3.256036193222987e-07,-9.819709880346433e-05,4.984293178675906e-07,-2.529833169027491e-05,1.203345667210634e-06,-5.585454197474610e-05,5.575101790518849e+01,-3.181453663120160e+02,-6.537526247730249e+03,1.308039740471132e+04,
384,2.307692307690872e-01,2.500000000006484e-01,1.108061963699714e-06,-3.245022526167914e-04,9.789159547441243e-07,-8.716486112747282e-05,2.342945801668906e-06,-1.615307266591179e-04,9.681888330722830e+01,-4.730446367340231e+02,-7.787734303793091e+03,1.558588998990358e+04,
385,3.461538461536309e-01,2.500000000006256e-01,1.851199817143601e-06,-6.482461852666402e-04,1.338738922704862e-06,-1.773906879119258e-04,3.174715105951716e-06,-2.964906502437542e-04,9.501644627326294e+01,-5.015797410208282e+02,-7.519516392261802e+03,1.505086157350036e+04,
386,4.615384615381745e-01,2.500000000006029e-01,2.296508698130105e-06,-1.051999555974964e-03,1.538251434466295e-06,-2.913214375330381e-04,5.305817921604878e-06,-4.510899555391211e-04,7.575676398160880e+01,-4.854493369618115e+02,-7.108015321706696e+03,1.422710369478640e+04,
387,5.769230769227179e-01,2.500000000005801e-01,2.407710797981626e-06,-1.523364058569552e-03,1.573492866873519e-06,-4.255170747146972e-04,6.878333636443107e-06,-6.194415027327672e-04,5.959426191530859e+01,-4.660662290190834e+02,-6.762559359046464e+03,1.353532989218353e+04,
388,6.923076923072617e-01,2.500000000005573e-01,2.228832532335588e-06,-2.050833865487729e-03,1.457055350637138e-06,-5.766761107261638e-04,7.193764618099477e-06,-8.014374126712992e-04,5.092876333127822e+01,-4.529121166075270e+02,-6.436016542692983e+03,1.288189005478499e+04,
389,8.076923076918056e-01,2.500000000005347e-01,1.812639430850430e-06,-2.623263669738243e-03,1.208027705850113e-06,-7.415276116406126e-04,6.341664584331538e-06,-1.000523046601043e-03,4.724135178620229e+01,-4.455370042756016e+02,-6.110601901013311e+03,1.223113457038524e+04,
390,9.230769230763489e-01,2.500000000005119e-01,1.209248057289343e-06,-3.230008366763084e-03,8.493693921214546e-07,-9.168911887501752e-04,5.840592381775905e-06,-1.222795486058483e-03,4.616388609794033e+01,-4.422400242001577e+02,-5.785092646420621e+03,1.158048902638720e+04,
391,1.038461538460893e+00,2.500000000004892e-01,4.683183954823066e-07,-3.860975253619989e-03,4.070593520928445e-07,-1.099712049949082e-03,5.795747981027620e-06,-1.473520996169719e-03,4.653814814585321e+01,-4.417636868581333e+02,-5.459692013673767e+03,1.093029671229289e+04,
392,1.153846153845436e+00,2.500000000004664e-01,-3.599319427492345e-07,-4.506625731979651e-03,-8.823041236351372e-08,-1.287083490825524e-03,6.252739178490209e-06,-1.757878810446800e-03,4.787111511647282e+01,-4.433594149347109e+02,-5.134578907224889e+03,1.028090023547205e+04,
393,1.269230769229980e+00,2.500000000004436e-01,-1.225526052389714e-06,-5.157974096679496e-03,-6.055336984753705e-07,-1.476257665653318e-03,7.319070555668256e-06,-2.082227367671450e-03,4.993455259877204e+01,-4.465699365620227e+02,-4.809824543680734e+03,9.632453751341407e+03,
394,1.384615384614523e+00,2.500000000004209e-01,-2.080379462544695e-06,-5.806586756510294e-03,-1.115429730550109e-06,-1.664655281411119e-03,6.643140454061941e-06,-2.449014378439507e-03,5.257893661325637e+01,-4.510541209234439e+02,-4.485477533293998e+03,8.985081027090664e+03,
395,1.499999999999067e+00,2.500000000003981e-01,-2.880067811084778e-06,-6.444581521115405e-03,-1.591165992132546e-06,-1.849872939981868e-03,4.522046821615092e-06,-2.855693245136435e-03,5.566923935554733e+01,-4.565138973614883e+02,-4.161588203649291e+03,8.338920617954644e+03,
396,1.615384615383635e+00,2.500000000003754e-01,-3.585332228119485e-06,-7.064626847303315e-03,-2.010781071482378e-06,-2.029688793973191e-03,2.156984012262797e-06,-3.296138160268953e-03,5.907396944256435e+01,-4.626741260557133e+02,-3.838203034174775e+03,7.694116661537560e+03,
397,1.730769230768204e+00,2.500000000003526e-01,-4.163225058298623e-06,-7.659940953280041e-03,-2.355393227781687e-06,-2.202063902503631e-03,-3.738509414138461e-08,-3.765494645623355e-03,6.266782239480808e+01,-4.692786549717837e+02,-3.515362276897128e+03,7.050819442171823e+03,
398,1.846153846152772e+00,2.500000000003298e-01,-4.587904751077767e-06,-8.224290841047513e-03,-2.609908701944750e-06,-2.365141583749602e-03,-8.215761444943845e-07,-4.257820898855123e-03,6.633463337511049e+01,-4.760919137556680e+02,-3.193098327027264e+03,6.409191389191733e+03,
399,1.961538461537340e+00,2.500000000003071e-01,-4.841110103264650e-06,-8.751991240353340e-03,-2.763886114735878e-06,-2.517252830504062e-03,-4.377818555287847e-07,-4.764928274574648e-03,6.996847354337184e+01,-4.828997824425740e+02,-2.871434540130289e+03,5.769420125237018e+03,
400,2.076923076921908e+00,2.500000000002843e-01,-4.912353566166732e-06,-9.237903482108484e-03,-2.810809602538249e-06,-2.656921259650850e-03,-3.529717884628082e-07,-5.275896641252681e-03,7.347353111797771e+01,-4.895075859329500e+02,-2.550383013255410e+03,5.131740620429182e+03,
401,2.192307692306476e+00,2.500000000002616e-01,-4.798863716504739e-06,-9.677434311354462e-03,-2.749234563514983e-06,-2.782864357800037e-03,-1.159137992284745e-06,-5.778285458039535e-03,7.676387322109446e+01,-4.957401252749979e+02,-2.229941711073730e+03,4.496478729788429e+03,
402,2.307692307691044e+00,2.500000000002389e-01,-4.505296551679882e-06,-1.006653466397306e-02,-2.582551469931409e-06,-2.893989100471165e-03,-2.674943103715747e-06,-6.258171928248209e-03,7.976388715473517e+01,-5.014434177879953e+02,-1.910091716754211e+03,3.864143294052511e+03,
403,2.423076923075612e+00,2.500000000002160e-01,-4.043239910652617e-06,-1.040169843503371e-02,-2.318181775128862e-06,-2.989391244563114e-03,-3.933237158114222e-06,-6.696759935306997e-03,8.240897166045383e+01,-5.064857935454550e+02,-1.590794808080473e+03,3.235631241373169e+03,
404,2.538461538460180e+00,2.500000000001934e-01,-3.430538934788747e-06,-1.067996126826476e-02,-1.967437401481673e-06,-3.068347912603859e-03,-3.832824094122144e-06,-7.077605968026786e-03,8.464562303898123e+01,-5.107583947049464e+02,-1.271992689441083e+03,2.612731817908575e+03,
405,2.653846153844748e+00,2.500000000001706e-01,-2.690472870636496e-06,-1.089889944103344e-02,-1.543831307664163e-06,-3.130297563313783e-03,-2.395526166750850e-06,-7.389171705709179e-03,8.643078002254947e+01,-5.141739498043678e+02,-9.536088455673311e+02,1.999551290381794e+03,
406,2.769230769229317e+00,2.500000000001479e-01,-1.850814150558397e-06,-1.105662890194757e-02,-1.062640956040890e-06,-3.174824889967209e-03,-7.102193092258512e-07,-7.619638607561185e-03,8.773084104582225e+01,-5.166643640731048e+02,-6.355517843845503e+02,1.407479252603140e+03,
407,2.884615384613885e+00,2.500000000001251e-01,-9.427949337717569e-07,-1.115180448221117e-02,-5.415529709166544e-07,-3.201648101043052e-03,1.114353139024784e-07,-7.759985658741512e-03,8.852116081482137e+01,-5.181794284453122e+02,-3.177188604332429e+02,8.785594471113421e+02,
408,2.999999999998453e+00,2.500000000001024e-01,-5.369927160876598e-17,-1.118361931451782e-02,-2.412248124675990e-13,-3.210606316438049e-03,2.706257233001585e-10,-7.806920771143189e-03,8.878636316593929e+01,-5.186879596518929e+02,-9.153268365480471e-09,6.074743228178322e+02,
409,3.115384615383235e+00,2.500000000000796e-01,9.427949326971470e-07,-1.115180448221210e-02,5.415528209249887e-07,-3.201648101069115e-03,-1.118649522362850e-07,-7.759985631293192e-03,8.852116071271587e+01,-5.181794284168939e+02,3.177188603378629e+02,8.785594468832359e+02,
410,3.230769230768017e+00,2.500000000000568e-01,1.850814149755830e-06,-1.105662890194907e-02,1.062640964642703e-06,-3.174824889887282e-03,7.096704005664236e-07,-7.619638567001591e-03,8.773084094443954e+01,-5.166643640701107e+02,6.355517845405245e+02,1.407479252840041e+03,
411,3.346153846152798e+00,2.500000000000341e-01,2.690472869962260e-06,-1.089889944103543e-02,1.543831404825899e-06,-3.130297563388437e-03,2.395671828796283e-06,-7.389171801793053e-03,8.643077988106060e+01,-5.141739498571885e+02,9.536088454398295e+02,1.999551290111933e+03,
412,3.461538461537580e+00,2.500000000000113e-01,3.430538934731264e-06,-1.067996126826752e-02,1.967437878948035e-06,-3.068347912658577e-03,3.832819537818710e-06,-7.077605957260121e-03,8.464562328890250e+01,-5.107583946559197e+02,1.271992689363456e+03,2.612731817803187e+03,
413,3.576923076922361e+00,2.499999999999886e-01,4.043239910696856e-06,-1.040169843503733e-02,2.318181951248235e-06,-2.989391244541611e-03,3.932992249381437e-06,-6.696759971806179e-03,8.240897173617238e+01,-5.064857936274329e+02,1.590794807937959e+03,3.235631241121604e+03,
414,3.692307692307143e+00,2.499999999999658e-01,4.505296551930769e-06,-1.006653466397738e-02,2.582551310412789e-06,-2.893989100421743e-03,2.675218113009310e-06,-6.258171827832373e-03,7.976388729555487e+01,-5.014434177612734e+02,1.910091716892612e+03,3.864143294343325e+03,
415,3.807692307691924e+00,2.499999999999432e-01,4.798863717331504e-06,-9.677434311358727e-03,2.749234601249445e-06,-2.782864357646418e-03,1.159209403865764e-06,-5.778285532504652e-03,7.676387324083282e+01,-4.957401252521504e+02,2.229941710983375e+03,4.496478729608793e+03,
416,3.923076923076707e+00,2.499999999999204e-01,4.912353567400763e-06,-9.237903482112762e-03,2.810809791722177e-06,-2.656921259642994e-03,3.535230870979328e-07,-5.275896839386938e-03,7.347353123025920e+01,-4.895075859646357e+02,2.550383013206873e+03,5.131740620348488e+03,
417,4.038461538461487e+00,2.499999999998976e-01,4.841110105012852e-06,-8.751991240357629e-03,2.763886601439497e-06,-2.517252830540648e-03,4.379865677836892e-07,-4.764928282172584e-03,6.996847385412553e+01,-4.828997823336765e+02,2.871434540025953e+03,5.769420125048649e+03,
418,4.153846153846269e+00,2.499999999998749e-01,4.587904752865399e-06,-8.224290841051536e-03,2.609908307069343e-06,-2.365141583665013e-03,8.202617218924462e-07,-4.257820696196257e-03,6.633463335552571e+01,-4.760919136897720e+02,3.193098327083617e+03,6.409191389296800e+03,
419,4.269230769231050e+00,2.499999999998521e-01,4.163225060910186e-06,-7.659940953283294e-03,2.355393278801501e-06,-2.202063902494107e-03,3.735276728847669e-08,-3.765494809801404e-03,6.266782216830703e+01,-4.692786550280948e+02,3.515362276845304e+03,7.050819442055629e+03,
420,4.384615384615833e+00,2.499999999998294e-01,3.585332230390927e-06,-7.064626847305448e-03,2.010781045611433e-06,-2.029688793913225e-03,-2.156400242281200e-06,-3.296138004684012e-03,5.907396933260810e+01,-4.626741260729935e+02,3.838203034198052e+03,7.694116661577720e+03,
421,4.500000000000615e+00,2.499999999998066e-01,2.880067813683346e-06,-6.444581521116995e-03,1.591166035850428e-06,-1.849872940004795e-03,-4.521872864305645e-06,-2.855693306310790e-03,5.566923937156503e+01,-4.565138973564963e+02,4.161588203748413e+03,8.338920618153190e+03,
422,4.615384615385183e+00,2.499999999997838e-01,2.080379465504405e-06,-5.806586756512252e-03,1.115429530008376e-06,-1.664655281591465e-03,-6.643134282963379e-06,-2.449014404865808e-03,5.257893653820813e+01,-4.510541210153559e+02,4.485477533277488e+03,8.985081027058639e+03,
423,4.730769230769750e+00,2.499999999997611e-01,1.225526056052751e-06,-5.157974096681471e-03,6.055337040426290e-07,-1.476257665799939e-03,-7.319230050543999e-06,-2.082227558018345e-03,4.993455271107730e+01,-4.465699364963312e+02,4.809824543687245e+03,9.632453751356814e+03,
424,4.846153846154318e+00,2.499999999997383e-01,3.599319463882375e-07,-4.506625731982104e-03,8.823010892993860e-08,-1.287083490648494e-03,-6.252406541367368e-06,-1.757878539471207e-03,4.787111490797084e+01,-4.433594149214256e+02,5.134578907325968e+03,1.028090023566338e+04,
425,4.961538461538887e+00,2.499999999997156e-01,-4.683183918091105e-07,-3.860975253622918e-03,-4.070597378120711e-07,-1.099712049690105e-03,-5.796499747025746e-06,-1.473520845511519e-03,4.653814793353387e+01,-4.417636868547586e+02,5.459692013462593e+03,1.093029671186133e+04,
426,5.076923076923453e+00,2.499999999996929e-01,-1.209248053429240e-06,-3.230008366766245e-03,-8.493693736275735e-07,-9.168911887178314e-04,-5.840639966537156e-06,-1.222795490788988e-03,4.616388609002314e+01,-4.422400241987648e+02,5.785092646359815e+03,1.158048902626530e+04,
427,5.192307692308023e+00,2.499999999996700e-01,-1.812639426564319e-06,-2.623263669740670e-03,-1.208027596510642e-06,-7.415276117021761e-04,-6.342399928444951e-06,-1.000523296443941e-03,4.724135219714412e+01,-4.455370041525883e+02,6.110601900982911e+03,1.223113457033609e+04,
428,5.307692307692589e+00,2.499999999996474e-01,-2.228832527415407e-06,-2.050833865489426e-03,-1.457055670128642e-06,-5.766761108185333e-04,-7.194934450007155e-06,-8.014371850467595e-04,5.092876328666331e+01,-4.529121165392801e+02,6.436016542980167e+03,1.288189005535451e+04,
429,5.423076923077159e+00,2.499999999996246e-01,-2.407710794737202e-06,-1.523364058569896e-03,-1.573493065015173e-06,-4.255170747597518e-04,-6.878931279617145e-06,-6.194416742909254e-04,5.959426177178420e+01,-4.660662289854670e+02,6.762559358919098e+03,1.353532989192211e+04,
430,5.538461538461725e+00,2.499999999996019e-01,-2.296508695071396e-06,-1.051999555974995e-03,-1.538251393068202e-06,-2.913214376672115e-04,-5.305336207983915e-06,-4.510900090847210e-04,7.575676367797271e+01,-4.854493370300693e+02,7.108015321682542e+03,1.422710369472884e+04,
431,5.653846153846295e+00,2.499999999995791e-01,-1.851199814644766e-06,-6.482461852664873e-04,-1.338739330402478e-06,-1.773906878164697e-04,-3.174446753663729e-06,-2.964906830194444e-04,9.501644634186115e+01,-5.015797409084555e+02,7.519516392304372e+03,1.505086157358369e+04,
432,5.769230769230864e+00,2.499999999995564e-01,-1.108061961689132e-06,-3.245022526167820e-04,-9.789164659519697e-07,-8.716486084444399e-05,-2.343881295772665e-06,-1.615306422846857e-04,9.681888317520247e+01,-4.730446367327976e+02,7.787734303984191e+03,1.558588999028065e+04,
433,5.884615384615432e+00,2.499999999995336e-01,-3.256036185823026e-07,-9.819709880347272e-05,-4.984295206467453e-07,-2.529833174640314e-05,-1.202482742804336e-06,-5.585454501987489e-05,5.575101751421738e+01,-3.181453663835069e+02,6.537526247713283e+03,1.308039740466827e+04,
434,1.153846153844783e-01,2.083333333339490e-01,-3.464724495009003e-05,-9.908473483395068e-05,-9.415922111527318e-06,-2.561559263995058e-05,-1.282285549492274e-05,-5.695033603650509e-05,-9.429233083668432e+03,-1.090363034539839e+03,-6.465510807737193e+03,1.538661995748643e+04,
435,2.307692307689566e-01,2.083333333339286e-01,-7.006866558001117e-05,-3.256565246830869e-04,-1.922513944211124e-05,-8.758495407432602e-05,-2.528495659380208e-05,-1.622926697106600e-04,-8.849033560732165e+03,-2.993192842837095e+02,-7.567716802708036e+03,1.738329556306469e+04,
436,3.461538461534347e-01,2.083333333339081e-01,-1.023410308902922e-04,-6.490839314965290e-04,-2.831138639440684e-05,-1.777199146742961e-04,-3.702851274213385e-05,-2.965006156545548e-04,-7.799305428784295e+03,-3.144214601270282e+02,-7.272672944407515e+03,1.635819595950394e+04,
437,4.615384615379131e-01,2.083333333338877e-01,-1.300458353731171e-04,-1.052477105988975e-03,-3.625266463975272e-05,-2.915324296334059e-04,-4.593614449289401e-05,-4.498072102975109e-04,-6.612431059653630e+03,-3.629429803663057e+02,-6.881815566584476e+03,1.511600619287687e+04,
438,5.769230769223912e-01,2.083333333338673e-01,-1.535251362033976e-04,-1.523541403741354e-03,-4.311214712321444e-05,-4.256217333342266e-04,-5.395895871224970e-05,-6.181780399255575e-04,-5.496939122240686e+03,-3.517179265547026e+02,-6.548599598335954e+03,1.407160004938456e+04,
439,6.923076923068694e-01,2.083333333338468e-01,-1.731323455393560e-04,-2.050732311282310e-03,-4.895692182251151e-05,-5.766801119560416e-04,-6.268904183728701e-05,-8.004213643260593e-04,-4.451765786254449e+03,-3.373916308103335e+02,-6.231793445958103e+03,1.312513134804113e+04,
440,8.076923076913481e-01,2.083333333338264e-01,-1.890367763131027e-04,-2.622895488078867e-03,-5.380552944757963e-05,-7.414365672100930e-04,-7.276798839665324e-05,-9.998444164918050e-04,-3.456409980384368e+03,-3.301896190669895e+02,-5.918203459998693e+03,1.224229482259259e+04,
441,9.230769230758262e-01,2.083333333338060e-01,-2.013838938007696e-04,-3.229392548992955e-03,-5.767263249576425e-05,-9.167137871138651e-04,-8.332916594402619e-05,-1.222118984686362e-03,-2.509832979469497e+03,-3.269444809599181e+02,-5.605648738697566e+03,1.142182968370531e+04,
442,1.038461538460305e+00,2.083333333337856e-01,-2.103234856081555e-04,-3.860135065881569e-03,-6.057686798233925e-05,-1.099458485675438e-03,-9.385882189595881e-05,-1.472559906255479e-03,-1.613694884489750e+03,-3.264785095848839e+02,-5.293741932005236e+03,1.066544610255499e+04,
443,1.153846153844782e+00,2.083333333337651e-01,-2.160046930129069e-04,-4.505586346407631e-03,-6.253828098287021e-05,-1.286764362274597e-03,-1.044554248475033e-04,-1.756359266342992e-03,-7.684571699332405e+02,-3.280417884658694e+02,-4.982276468730026e+03,9.974280974169355e+03,
444,1.269230769229261e+00,2.083333333337447e-01,-2.185768339021927e-04,-5.156761215209178e-03,-6.357947899752716e-05,-1.475884086359074e-03,-1.153613789306041e-04,-2.080857519931272e-03,2.569957241202086e+01,-3.311691009562141e+02,-4.671061190979939e+03,9.348936081156364e+03,
445,1.384615384613739e+00,2.083333333337243e-01,-2.181909134717936e-04,-5.805225619956419e-03,-6.372865908605853e-05,-1.664238530731283e-03,-1.270727944431248e-04,-2.447972231314776e-03,7.686907406928310e+02,-3.355407990294582e+02,-4.359964466273687e+03,8.789566990585728e+03,
446,1.499999999998218e+00,2.083333333337039e-01,-2.150013236503738e-04,-6.443096239558994e-03,-6.302047545480095e-05,-1.849424840290706e-03,-1.390453303113480e-04,-2.854266387420449e-03,1.460459487026489e+03,-3.408677736047038e+02,-4.048893321968388e+03,8.295717475337133e+03,
447,1.615384615382760e+00,2.083333333336834e-01,-2.091673378816940e-04,-7.063039894984453e-03,-6.149528201298831e-05,-2.029220095722869e-03,-1.498973383777584e-04,-3.294510655217316e-03,2.100957348433099e+03,-3.468838291462113e+02,-3.737785273444723e+03,7.866135101317155e+03,
448,1.730769230767303e+00,2.083333333336630e-01,-2.008542233559852e-04,-7.658272793499599e-03,-5.919771766819953e-05,-2.201583450067129e-03,-1.584663227080670e-04,-3.763352578332040e-03,2.690149458592657e+03,-3.533397626323831e+02,-3.426601413536511e+03,7.498614247226928e+03,
449,1.846153846151845e+00,2.083333333336426e-01,-1.902340098749788e-04,-8.222559664325831e-03,-5.617753937430727e-05,-2.364657331850542e-03,-1.630567745531188e-04,-4.254790251891154e-03,3.228015723015802e+03,-3.600060202150615e+02,-3.115323608210834e+03,7.189914100001512e+03,
450,1.961538461536388e+00,2.083333333336221e-01,-1.774859420660426e-04,-8.750212807438916e-03,-5.249012694630294e-05,-2.516771026655558e-03,-1.632283589707183e-04,-4.761806827184017e-03,3.714550578105088e+03,-3.666735425823352e+02,-2.803951134491381e+03,6.935773798340228e+03,
451,2.076923076920930e+00,2.083333333336017e-01,-1.627966573561094e-04,-9.236091067496453e-03,-4.819511952866283e-05,-2.656446339286146e-03,-1.599464642997963e-04,-5.273314240319028e-03,4.149761002778299e+03,-3.731516857087807e+02,-2.492496303189295e+03,6.731039330840866e+03,
452,2.192307692305473e+00,2.083333333335813e-01,-1.463601214004411e-04,-9.675598734699956e-03,-4.335596704124033e-05,-2.782399644752301e-03,-1.536235397378379e-04,-5.776224565461317e-03,4.533664144853996e+03,-3.792678781370092e+02,-2.180979169585911e+03,6.569899665535318e+03,
453,2.307692307690015e+00,2.083333333335608e-01,-1.283773418521454e-04,-1.006468439674060e-02,-3.803941883665045e-05,-2.893536560265016e-03,-1.435217620156948e-04,-6.256274629396702e-03,4.866285327447053e+03,-3.848696583536913e+02,-1.869422268166804e+03,6.446207191191706e+03,
454,2.423076923074558e+00,2.083333333335404e-01,-1.090558844031157e-04,-1.039983977354632e-02,-3.231518177708364e-05,-2.988951812714211e-03,-1.286277804421532e-04,-6.694455597722569e-03,5.147655767587066e+03,-3.898264300397830e+02,-1.557845839315989e+03,6.353836929393990e+03,
455,2.538461538459099e+00,2.083333333335200e-01,-8.860922268704970e-05,-1.067809856557918e-02,-2.625388935162528e-05,-3.067921203863683e-03,-1.088604184531259e-04,-7.074566212140127e-03,5.377809342368705e+03,-3.940294637126466e+02,-1.246264730261819e+03,6.287036369782257e+03,
456,2.653846153843643e+00,2.083333333334996e-01,-6.725595400665569e-05,-1.089703539048065e-02,-1.992414678012629e-05,-3.129881642805254e-03,-8.464735686162171e-05,-7.385521242585256e-03,5.556778937246816e+03,-3.973908861322071e+02,-9.346877940323993e+02,6.240729394461036e+03,
457,2.769230769228185e+00,2.083333333334792e-01,-4.521890598234047e-05,-1.105476486408259e-02,-1.339355397980270e-05,-3.174417203012086e-03,-5.701283862974745e-05,-7.615963305719333e-03,5.684593037963456e+03,-3.998426223588262e+02,-6.231186569287336e+02,6.210753959629386e+03,
458,2.884615384612728e+00,2.083333333334587e-01,-2.272415805115121e-05,-1.114994084547946e-02,-6.729886579036798e-06,-3.201245508563397e-03,-2.825220097465807e-05,-7.756749785869562e-03,5.761273016590492e+03,-4.013348066656876e+02,-3.115570419744805e+02,6.194029895381021e+03,
459,2.999999999997270e+00,2.083333333334383e-01,-1.299216634931095e-15,-1.118175587738197e-02,-2.843137245854704e-14,-3.210205364010475e-03,-3.516124936335472e-10,-7.803933251082576e-03,5.786831631931173e+03,-4.018358562355476e+02,3.402328729862347e-08,6.188667488166720e+03,
460,3.115384615382061e+00,2.083333333334179e-01,2.272415805000861e-05,-1.114994084548178e-02,6.729886577209250e-06,-3.201245508578411e-03,2.825239023369816e-05,-7.756749718091342e-03,5.761273016795761e+03,-4.013348065701455e+02,3.115570420838072e+02,6.194029895512187e+03,
461,3.230769230766853e+00,2.083333333333974e-01,4.521890598093575e-05,-1.105476486408670e-02,1.339355437043495e-05,-3.174417202951471e-03,5.701330367480577e-05,-7.615963239537268e-03,5.684593038038138e+03,-3.998426222892704e+02,6.231186570307897e+02,6.210753959675367e+03,
462,3.346153846151644e+00,2.083333333333770e-01,6.725595400505295e-05,-1.089703539048632e-02,1.992414686745804e-05,-3.129881642859468e-03,8.464774757120243e-05,-7.385521210381467e-03,5.556778937533703e+03,-3.973908860525544e+02,9.346877940458718e+02,6.240729394666825e+03,
463,3.461538461536436e+00,2.083333333333566e-01,8.860922268601437e-05,-1.067809856558671e-02,2.625388946415735e-05,-3.067921203915093e-03,1.088608343361319e-04,-7.074566231876928e-03,5.377809342496996e+03,-3.940294636904794e+02,1.246264730223506e+03,6.287036369849305e+03,
464,3.576923076921227e+00,2.083333333333361e-01,1.090558844025468e-04,-1.039983977355563e-02,3.231518153610869e-05,-2.988951812713448e-03,1.286276537533240e-04,-6.694455757332531e-03,5.147655767515013e+03,-3.898264301319088e+02,1.557845839333148e+03,6.353836929428311e+03,
465,3.692307692306019e+00,2.083333333333157e-01,1.283773418519896e-04,-1.006468439675165e-02,3.803941871350831e-05,-2.893536560185256e-03,1.435217030805515e-04,-6.256274425155806e-03,4.866285327491152e+03,-3.848696583608121e+02,1.869422268103246e+03,6.446207191159705e+03,
466,3.807692307690811e+00,2.083333333332953e-01,1.463601214002280e-04,-9.675598734711806e-03,4.335596677416472e-05,-2.782399644614691e-03,1.536233811723241e-04,-5.776224695950615e-03,4.533664145083431e+03,-3.792678780478311e+02,2.180979169557790e+03,6.569899665602862e+03,
467,3.923076923075603e+00,2.083333333332749e-01,1.627966573562758e-04,-9.236091067509033e-03,4.819511914910240e-05,-2.656446339212449e-03,1.599460574963537e-04,-5.273314379289218e-03,4.149761002934207e+03,-3.731516856482904e+02,2.492496302959894e+03,6.731039330565191e+03,
468,4.038461538460394e+00,2.083333333332544e-01,1.774859420668965e-04,-8.750212807452194e-03,5.249012686909624e-05,-2.516771026746466e-03,1.632280743628342e-04,-4.761806947165458e-03,3.714550578307434e+03,-3.666735425357173e+02,2.803951134441404e+03,6.935773798351046e+03,
469,4.153846153845185e+00,2.083333333332340e-01,1.902340098761421e-04,-8.222559664339454e-03,5.617753937084954e-05,-2.364657331787719e-03,1.630573605325416e-04,-4.254790264323502e-03,3.228015723094315e+03,-3.600060201451520e+02,3.115323608318686e+03,7.189914100192728e+03,
470,4.269230769229977e+00,2.083333333332136e-01,2.008542233578522e-04,-7.658272793512780e-03,5.919771749620363e-05,-2.201583449990766e-03,1.584660077327760e-04,-3.763352590365263e-03,2.690149458580407e+03,-3.533397626310521e+02,3.426601413599820e+03,7.498614247337136e+03,
471,4.384615384614769e+00,2.083333333331931e-01,2.091673378840233e-04,-7.063039894996774e-03,6.149528217870219e-05,-2.029220095722219e-03,1.498970717863673e-04,-3.294510728820362e-03,2.100957348311852e+03,-3.468838292068412e+02,3.737785273239218e+03,7.866135100907687e+03,
472,4.499999999999559e+00,2.083333333331727e-01,2.150013236523501e-04,-6.443096239571042e-03,6.302047552542914e-05,-1.849424840290199e-03,1.390456108747929e-04,-2.854266194141613e-03,1.460459487343218e+03,-3.408677735081607e+02,4.048893321806194e+03,8.295717475068297e+03,
473,4.615384615384209e+00,2.083333333331523e-01,2.181909134748876e-04,-5.805225619968079e-03,6.372865904408993e-05,-1.664238530907686e-03,1.270728765728411e-04,-2.447972166154386e-03,7.686907407681736e+02,-3.355407990510722e+02,4.359964466225409e+03,8.789566990502117e+03,
474,4.730769230768859e+00,2.083333333331319e-01,2.185768339047436e-04,-5.156761215220253e-03,6.357947882666226e-05,-1.475884086577961e-03,1.153609691981114e-04,-2.080857655546817e-03,2.569957214153507e+01,-3.311691010179576e+02,4.671061190802218e+03,9.348936080793213e+03,
475,4.846153846153507e+00,2.083333333331114e-01,2.160046930159196e-04,-4.505586346418457e-03,6.253828116461529e-05,-1.286764362138697e-03,1.044565775290606e-04,-1.756359171715011e-03,-7.684571696329297e+02,-3.280417883551514e+02,4.982276468769801e+03,9.974280974240457e+03,
476,4.961538461538157e+00,2.083333333330910e-01,2.103234856116079e-04,-3.860135065891832e-03,6.057686782130222e-05,-1.099458485345929e-03,9.385897451661262e-05,-1.472559747883870e-03,-1.613694884267104e+03,-3.264785094868265e+02,5.293741931607279e+03,1.066544610174985e+04,
477,5.076923076922805e+00,2.083333333330706e-01,2.013838938049468e-04,-3.229392549002514e-03,5.767263253109083e-05,-9.167137871229727e-04,8.332828170729828e-05,-1.222118822362303e-03,-2.509832979354720e+03,-3.269444808947663e+02,5.605648738775853e+03,1.142182968384952e+04,
478,5.192307692307454e+00,2.083333333330502e-01,1.890367763158706e-04,-2.622895488086548e-03,5.380552978920351e-05,-7.414365672278861e-04,7.276944296487754e-05,-9.998446712973120e-04,-3.456409980518616e+03,-3.301896190323163e+02,5.918203460025151e+03,1.224229482268689e+04,
479,5.307692307692102e+00,2.083333333330297e-01,1.731323455431352e-04,-2.050732311288207e-03,4.895692191258039e-05,-5.766801120384422e-04,6.268875415794240e-05,-8.004213185013509e-04,-4.451765786269541e+03,-3.373916308168244e+02,6.231793446184763e+03,1.312513134847430e+04,
480,5.423076923076754e+00,2.083333333330093e-01,1.535251362072094e-04,-1.523541403744978e-03,4.311214759048387e-05,-4.256217335035516e-04,5.395997606517597e-05,-6.181780013826718e-04,-5.496939122398519e+03,-3.517179265806963e+02,6.548599598451467e+03,1.407160004964780e+04,
481,5.538461538461402e+00,2.083333333329889e-01,1.300458353760536e-04,-1.052477105991219e-03,3.625266454806471e-05,-2.915324297343489e-04,4.593515440347422e-05,-4.498072376889006e-04,-6.612431059557513e+03,-3.629429803056751e+02,6.881815566489228e+03,1.511600619268875e+04,
482,5.653846153846053e+00,2.083333333329684e-01,1.023410308927415e-04,-6.490839314979173e-04,2.831138653705656e-05,-1.777199144549226e-04,3.702866144467929e-05,-2.965005045197420e-04,-7.799305428959638e+03,-3.144214601050897e+02,7.272672944338506e+03,1.635819595947148e+04,
483,5.769230769230701e+00,2.083333333329480e-01,7.006866558206073e-05,-3.256565246837134e-04,1.922514007372013e-05,-8.758495385393744e-05,2.528508428442398e-05,-1.622928664372257e-04,-8.849033560907355e+03,-2.993192843075013e+02,7.567716802714353e+03,1.738329556315016e+04,
484,5.884615384615352e+00,2.083333333329276e-01,3.464724495104597e-05,-9.908473483429015e-05,9.415921837210645e-06,-2.561559271967840e-05,1.282265009064457e-05,-5.695035500539712e-05,-9.429233083719660e+03,-1.090363034573636e+03,6.465510807484792e+03,1.538661995707164e+04,
485,1.153846153844129e-01,1.666666666672268e-01,-7.054416632451562e-05,-1.029359654951839e-04,-1.957500306054696e-05,-2.676539941530080e-05,-2.687924962554649e-05,-5.971685045327110e-05,-1.904667934587075e+04,-1.635393699999708e+03,-6.300182395181911e+03,2.149237215135535e+04,
486,2.307692307688259e-01,1.666666666672088e-01,-1.427847202592556e-04,-3.308063093911822e-04,-3.984205260505347e-05,-8.910945645430119e-05,-5.417874203388937e-05,-1.649362411374431e-04,-1.784952548723181e+04,-7.219612706496861e+01,-6.922142803520474e+03,2.253214777044503e+04,
487,3.461538461532387e-01,1.666666666671906e-01,-2.080113947723415e-04,-6.534585061034046e-04,-5.836269631951759e-05,-1.790257789453224e-04,-7.765178999192293e-05,-2.985704364223242e-04,-1.567315429711859e+04,-1.649510608598960e+02,-6.565025062111923e+03,2.032000452464849e+04,
488,4.615384615376518e-01,1.666666666671725e-01,-2.637000128361341e-04,-1.055903895263268e-03,-7.440708742297368e-05,-2.925614481840721e-04,-9.752478224167081e-05,-4.504801903761526e-04,-1.327196192444453e+04,-2.545440199494567e+02,-6.241395012663872e+03,1.803533242601009e+04,
489,5.769230769220646e-01,1.666666666671545e-01,-3.107037330407469e-04,-1.526189234553416e-03,-8.815046481583444e-05,-4.264133551367670e-04,-1.148194975079210e-04,-6.186132269566574e-04,-1.103671216158211e+04,-2.434444909857429e+02,-5.944818489980103e+03,1.605796047212653e+04,
490,6.923076923064775e-01,1.666666666671364e-01,-3.496868623198473e-04,-2.052662383997689e-03,-9.971508321856879e-05,-5.772478110513305e-04,-1.328477682462925e-04,-8.011636146674046e-04,-8.938950064497767e+03,-2.312186796315728e+02,-5.656990610567351e+03,1.427693093571487e+04,
491,8.076923076908908e-01,1.666666666671182e-01,-3.810181473138382e-04,-2.624141653154436e-03,-1.091506474318589e-04,-7.417896802780972e-04,-1.518606685925057e-04,-1.000734828470388e-03,-6.943241455279026e+03,-2.246655843693445e+02,-5.374161359558209e+03,1.267539754829978e+04,
492,9.230769230753035e-01,1.666666666671001e-01,-4.050468783349742e-04,-3.229995940178625e-03,-1.165116911042646e-04,-9.168655627769817e-04,-1.724149942497758e-04,-1.223037573660069e-03,-5.048883696545170e+03,-2.216428375257979e+02,-5.093318278185194e+03,1.127252494530696e+04,
493,1.038461538459717e+00,1.666666666670820e-01,-4.221229014054152e-04,-3.860140720386474e-03,-1.218614628044349e-04,-1.099424413285953e-03,-1.934935018156021e-04,-1.473056230151070e-03,-3.257047812441602e+03,-2.212776733082719e+02,-4.813703419937041e+03,1.009469478479205e+04,
494,1.153846153844129e+00,1.666666666670639e-01,-4.325949378060359e-04,-4.505041236192995e-03,-1.252712087473700e-04,-1.286560580631166e-03,-2.152022444162526e-04,-1.756640502062443e-03,-1.568053961521176e+03,-2.227062734175831e+02,-4.534632534885599e+03,9.168507474374313e+03,
495,1.269230769228542e+00,1.666666666670458e-01,-4.368117718009193e-04,-5.155712780821890e-03,-1.268176949810938e-04,-1.475527359815730e-03,-2.381445956496153e-04,-2.081151230924214e-03,1.797364833970667e+01,-2.255710917732470e+02,-4.255679104721838e+03,8.514841901638631e+03,
496,1.384615384612956e+00,1.666666666670277e-01,-4.351235089729916e-04,-5.803720770054526e-03,-1.265871501789048e-04,-1.663746908944154e-03,-2.608768683389732e-04,-2.448230513072911e-03,1.501047280352003e+03,-2.295699965352773e+02,-3.976522256540242e+03,8.139161700451733e+03,
497,1.499999999997368e+00,1.666666666670096e-01,-4.278834128026888e-04,-6.441180696771883e-03,-1.246757381238685e-04,-1.848816907359948e-03,-2.827774620649615e-04,-2.854121105584914e-03,2.881191936638547e+03,-2.344461463650407e+02,-3.696925583790279e+03,8.023480276824680e+03,
498,1.615384615381885e+00,1.666666666669915e-01,-4.154493289438081e-04,-7.060757686740296e-03,-1.211858938832146e-04,-2.028513193440354e-03,-3.023140617652773e-04,-3.294031466587400e-03,4.158453993393766e+03,-2.399567290720335e+02,-3.416714542645148e+03,8.126608760558950e+03,
499,1.730769230766402e+00,1.666666666669734e-01,-3.981847731361882e-04,-7.655665877594146e-03,-1.162260570427137e-04,-2.200793256606321e-03,-3.173293206100984e-04,-3.762221226559346e-03,5.332899122910910e+03,-2.458750143017152e+02,-3.135769402973198e+03,8.393742899834615e+03,
500,1.846153846150919e+00,1.666666666669553e-01,-3.764596673593425e-04,-8.219667665727574e-03,-1.099112148229797e-04,-2.363798693644017e-03,-3.259911992889157e-04,-4.252564090691789e-03,6.404613516627913e+03,-2.519914781249367e+02,-2.854020186097529e+03,8.768814911193946e+03,
501,1.961538461535435e+00,1.666666666669372e-01,-3.506507713262989e-04,-8.747072861510847e-03,-1.023624736062680e-04,-2.515857360222218e-03,-3.271290465941316e-04,-4.758994886941920e-03,7.373701373831440e+03,-2.581148108419204e+02,-2.571441457382322e+03,9.202926868753240e+03,
502,2.076923076919953e+00,1.666666666669191e-01,-3.211418451818079e-04,-9.232737764131367e-03,-9.370588531176320e-05,-2.655489236661359e-03,-3.208405519127113e-04,-5.270614345704978e-03,8.240281192424762e+03,-2.640701299054726e+02,-2.288045755614867e+03,9.657360143060258e+03,
503,2.192307692304469e+00,1.666666666669010e-01,-2.883235772846881e-04,-9.672064152117136e-03,-8.407021072923719e-05,-2.781408987753537e-03,-3.074235678292814e-04,-5.773664423068176e-03,9.004481262356276e+03,-2.696981688099304e+02,-2.003876024926932e+03,1.010309262624936e+04,
504,2.307692307688986e+00,1.666666666668828e-01,-2.525933007908693e-04,-1.006099821138467e-02,-7.358568417798237e-05,-2.892520890737429e-03,-2.856039805274383e-04,-6.253287263860572e-03,9.666435090918028e+03,-2.748574058078914e+02,-1.718998005721246e+03,1.051898821561055e+04,
505,2.423076923073503e+00,1.666666666668647e-01,-2.143545223442331e-04,-1.039602943681728e-02,-6.238434552233517e-05,-2.987918752679564e-03,-2.542984084015967e-04,-6.690717042239471e-03,1.022627604964147e+04,-2.794264341893432e+02,-1.433493209268451e+03,1.088987583964316e+04,
506,2.538461538458019e+00,1.666666666668467e-01,-1.740162977646329e-04,-1.067418954167174e-02,-5.059624183832592e-05,-3.066876325284344e-03,-2.145655410362293e-04,-7.070024395184257e-03,1.068413075534742e+04,-2.833034770663192e+02,-1.147453518410624e+03,1.120496371926176e+04,
507,2.653846153842537e+00,1.666666666668286e-01,-1.319924883067188e-04,-1.089305144695089e-02,-3.834520485480941e-05,-3.128828596828288e-03,-1.674060854963975e-04,-7.379999517454636e-03,1.104011236912875e+04,-2.864056017007704e+02,-8.609780537817851e+02,1.145666365832128e+04,
508,2.769230769227053e+00,1.666666666668105e-01,-8.870091670789377e-05,-1.105072840496346e-02,-2.575108540522021e-05,-3.173359207252423e-03,-1.138053914593855e-04,-7.609963241491186e-03,1.129431481340939e+04,-2.886689544239932e+02,-5.741712750543600e+02,1.163976819263518e+04,
509,2.884615384611569e+00,1.666666666667924e-01,-4.456244512572726e-05,-1.114587327943567e-02,-1.293138344207470e-05,-3.200184940859321e-03,-5.698807710903364e-05,-7.751181926665052e-03,1.144680795507776e+04,-2.900470565162107e+02,-2.871416067198703e+02,1.175089642420599e+04,
510,2.999999999996087e+00,1.666666666667742e-01,-2.005411354430052e-15,-1.117767800962377e-02,1.047891657852453e-13,-3.209143906806570e-03,3.584767758214260e-10,-7.798745215200245e-03,1.149763429375214e+04,-2.905099695697872e+02,-6.345771907945164e-09,1.178814426332192e+04,
511,3.115384615380890e+00,1.666666666667562e-01,4.456244512199696e-05,-1.114587327943924e-02,1.293138323338165e-05,-3.200184940888792e-03,5.698798211774142e-05,-7.751181845342443e-03,1.144680795506414e+04,-2.900470565134783e+02,2.871416066046788e+02,1.175089642417840e+04,
512,3.230769230765690e+00,1.666666666667380e-01,8.870091670446860e-05,-1.105072840497012e-02,2.575108518603131e-05,-3.173359207211623e-03,1.138050077353711e-04,-7.609963184743050e-03,1.129431481359326e+04,-2.886689543356180e+02,5.741712750669700e+02,1.163976819273271e+04,
513,3.346153846150491e+00,1.666666666667200e-01,1.319924883037490e-04,-1.089305144696017e-02,3.834520431463296e-05,-3.128828596912507e-03,1.674057616545987e-04,-7.379999459862413e-03,1.104011236914229e+04,-2.864056017841208e+02,8.609780537789383e+02,1.145666365841622e+04,
514,3.461538461535293e+00,1.666666666667018e-01,1.740162977621854e-04,-1.067418954168415e-02,5.059624150402247e-05,-3.066876325356455e-03,2.145641482796136e-04,-7.070024373487747e-03,1.068413075531854e+04,-2.833034770528521e+02,1.147453518395756e+03,1.120496371921422e+04,
515,3.576923076920094e+00,1.666666666666837e-01,2.143545223423069e-04,-1.039602943683231e-02,6.238434591567558e-05,-2.987918752730585e-03,2.542990397658135e-04,-6.690717248406474e-03,1.022627604990378e+04,-2.794264341287556e+02,1.433493209328718e+03,1.088987583986950e+04,
516,3.692307692304896e+00,1.666666666666656e-01,2.525933007889526e-04,-1.006099821140245e-02,7.358568417307690e-05,-2.892520890704668e-03,2.856038879221801e-04,-6.253287204245153e-03,9.666435090867712e+03,-2.748574058476938e+02,1.718998005619393e+03,1.051898821553403e+04,
517,3.807692307689697e+00,1.666666666666475e-01,2.883235772836339e-04,-9.672064152136631e-03,8.407021067443399e-05,-2.781408987655967e-03,3.074232794212511e-04,-5.773664418663125e-03,9.004481262448069e+03,-2.696981687694060e+02,2.003876025079591e+03,1.010309262641754e+04,
518,3.923076923074499e+00,1.666666666666294e-01,3.211418451812356e-04,-9.232737764152340e-03,9.370588557370943e-05,-2.655489236606726e-03,3.208409112572283e-04,-5.270614301452537e-03,8.240281192673159e+03,-2.640701297829127e+02,2.288045755579894e+03,9.657360143137927e+03,
519,4.038461538459300e+00,1.666666666666113e-01,3.506507713258475e-04,-8.747072861533131e-03,1.023624737953120e-04,-2.515857360239483e-03,3.271294386672794e-04,-4.758994958638931e-03,7.373701373712554e+03,-2.581148108614208e+02,2.571441457476855e+03,9.202926868776478e+03,
520,4.153846153844102e+00,1.666666666665932e-01,3.764596673598146e-04,-8.219667665750776e-03,1.099112149040643e-04,-2.363798693514314e-03,3.259902161347180e-04,-4.252564034934334e-03,6.404613516900079e+03,-2.519914780133840e+02,2.854020185972078e+03,8.768814911152547e+03,
521,4.269230769228904e+00,1.666666666665751e-01,3.981847731366088e-04,-7.655665877617232e-03,1.162260575058084e-04,-2.200793256552276e-03,3.173304865433538e-04,-3.762221220071615e-03,5.332899123199064e+03,-2.458750142311054e+02,3.135769403018904e+03,8.393742900047504e+03,
522,4.384615384613705e+00,1.666666666665570e-01,4.154493289452498e-04,-7.060757686762791e-03,1.211858940080091e-04,-2.028513193516835e-03,3.023137000541349e-04,-3.294031634870694e-03,4.158453993541220e+03,-2.399567291058128e+02,3.416714542697364e+03,8.126608760744856e+03,
523,4.499999999998506e+00,1.666666666665389e-01,4.278834128049902e-04,-6.441180696794257e-03,1.246757381109834e-04,-1.848816907424192e-03,2.827772882627698e-04,-2.854121005936357e-03,2.881191936579580e+03,-2.344461463765970e+02,3.696925583860937e+03,8.023480276936498e+03,
524,4.615384615383237e+00,1.666666666665208e-01,4.351235089751169e-04,-5.803720770075966e-03,1.265871501917676e-04,-1.663746909162522e-03,2.608766971058323e-04,-2.448230502960298e-03,1.501047280229633e+03,-2.295699965919393e+02,3.976522256604137e+03,8.139161700562629e+03,
525,4.730769230767965e+00,1.666666666665027e-01,4.368117718040208e-04,-5.155712780842052e-03,1.268176951399419e-04,-1.475527360085665e-03,2.381452945848074e-04,-2.081151349761399e-03,1.797364858592815e+01,-2.255710917212323e+02,4.255679104557788e+03,8.514841901316218e+03,
526,4.846153846152696e+00,1.666666666664846e-01,4.325949378097906e-04,-4.505041236212007e-03,1.252712083011249e-04,-1.286560580419164e-03,2.152009524886054e-04,-1.756640430200537e-03,-1.568053961499775e+03,-2.227062734663700e+02,4.534632534621693e+03,9.168507473841915e+03,
527,4.961538461537427e+00,1.666666666664665e-01,4.221229014092976e-04,-3.860140720404090e-03,1.218614628168234e-04,-1.099424413040021e-03,1.934929952516358e-04,-1.473056288209563e-03,-3.257047812601200e+03,-2.212776732498323e+02,4.813703419759360e+03,1.009469478451871e+04,
528,5.076923076922157e+00,1.666666666664484e-01,4.050468783382497e-04,-3.229995940194403e-03,1.165116909900338e-04,-9.168655628229893e-04,1.724151023961359e-04,-1.223037409525528e-03,-5.048883696582789e+03,-2.216428375523091e+02,5.093318278205953e+03,1.127252494534923e+04,
529,5.192307692306890e+00,1.666666666664303e-01,3.810181473182060e-04,-2.624141653167483e-03,1.091506474058666e-04,-7.417896801383185e-04,1.518601790040259e-04,-1.000734706686795e-03,-6.943241455249164e+03,-2.246655842769227e+02,5.374161359726580e+03,1.267539754861848e+04,
530,5.307692307691616e+00,1.666666666664122e-01,3.496868623236533e-04,-2.052662384007736e-03,9.971508363719745e-05,-5.772478111494677e-04,1.328477477712932e-04,-8.011636823199416e-04,-8.938950064539207e+03,-2.312186796617543e+02,5.656990610703029e+03,1.427693093593678e+04,
531,5.423076923076348e+00,1.666666666663941e-01,3.107037330444216e-04,-1.526189234560087e-03,8.815046468653974e-05,-4.264133553572487e-04,1.148192733144453e-04,-6.186132226289790e-04,-1.103671216150250e+04,-2.434444909773188e+02,5.944818489860227e+03,1.605796047190116e+04,
532,5.538461538461078e+00,1.666666666663760e-01,2.637000128394391e-04,-1.055903895267772e-03,7.440708775159173e-05,-2.925614481955556e-04,9.752534525075041e-05,-4.504801538578211e-04,-1.327196192479916e+04,-2.545440200686639e+02,6.241395012544577e+03,1.803533242601487e+04,
533,5.653846153845810e+00,1.666666666663579e-01,2.080113947753833e-04,-6.534585061062583e-04,5.836269648536171e-05,-1.790257787706457e-04,7.765145167625963e-05,-2.985705315447834e-04,-1.567315429726524e+04,-1.649510607949343e+02,6.565025062042626e+03,2.032000452472044e+04,
534,5.769230769230539e+00,1.666666666663398e-01,1.427847202607762e-04,-3.308063093926793e-04,3.984205239110959e-05,-8.910945625629952e-05,5.417858076727727e-05,-1.649361357000107e-04,-1.784952548768034e+04,-7.219612712056380e+01,6.922142803422538e+03,2.253214777063470e+04,
535,5.884615384615271e+00,1.666666666663217e-01,7.054416632594707e-05,-1.029359654955763e-04,1.957500334697255e-05,-2.676539944154644e-05,2.687961512144663e-05,-5.971694296694123e-05,-1.904667934618153e+04,-1.635393700189627e+03,6.300182395146475e+03,2.149237215141172e+04,
536,1.153846153843476e-01,1.250000000005047e-01,-1.085327562011678e-04,-1.103250528412268e-04,-3.028163886918270e-05,-2.890814274935102e-05,-4.179871322084975e-05,-6.156265422185310e-05,-2.892627945781211e+04,-1.649159038672011e+03,-5.929326252650908e+03,2.974338477042871e+04,
537,2.307692307686952e-01,1.250000000004888e-01,-2.187433858259251e-04,-3.400933650386053e-04,-6.131667973174772e-05,-9.177959136372542e-05,-8.401863943282396e-05,-1.680902494007948e-04,-2.694034498107616e+04,2.102022085841926e+02,-5.770921347347309e+03,2.950197189150327e+04,
538,3.461538461530429e-01,1.250000000004731e-01,-3.166095237400388e-04,-6.612761794281568e-04,-8.919890243266536e-05,-1.812868113888878e-04,-1.197219174829491e-04,-3.006966866609433e-04,-2.348673074920943e+04,-9.822681783860105e+01,-5.418167330456297e+03,2.577689401442782e+04,
539,4.615384615373904e-01,1.250000000004573e-01,-3.999583619350235e-04,-1.062235330390528e-03,-1.132769192030214e-04,-2.944002862872746e-04,-1.494783951183751e-04,-4.515663839623337e-04,-1.987666210630379e+04,-1.615076125872943e+02,-5.194230097773499e+03,2.228469030400858e+04,
540,5.769230769217377e-01,1.250000000004415e-01,-4.703739666362748e-04,-1.531286614257308e-03,-1.338899742316674e-04,-4.278889582624568e-04,-1.759962539146466e-04,-6.192672841037775e-04,-1.654752759722977e+04,-1.480571885954384e+02,-4.949160264009077e+03,1.915513975305477e+04,
541,6.923076923060858e-01,1.250000000004258e-01,-5.286184214041829e-04,-2.056597676918942e-03,-1.511555718459552e-04,-5.783738554715920e-04,-2.029834374456480e-04,-8.020947507603432e-04,-1.339682811976965e+04,-1.418857114300320e+02,-4.711629000998392e+03,1.626318817515793e+04,
542,8.076923076904334e-01,1.250000000004099e-01,-5.752545282250110e-04,-2.626974726162799e-03,-1.651537849383812e-04,-7.425804211045597e-04,-2.308614304795806e-04,-1.001712500547983e-03,-1.039950212975357e+04,-1.354747822484435e+02,-4.478195562362790e+03,1.362230521495523e+04,
543,9.230769230747808e-01,1.250000000003942e-01,-6.108431796177291e-04,-3.231790761629584e-03,-1.759806551487735e-04,-9.173390975136340e-04,-2.613446704384207e-04,-1.223993260701491e-03,-7.557441806882774e+03,-1.332433812797705e+02,-4.248123894055058e+03,1.128294946987232e+04,
544,1.038461538459128e+00,1.250000000003784e-01,-6.359333234091694e-04,-3.860964288422715e-03,-1.837445044802945e-04,-1.099601721947386e-03,-2.929653120029369e-04,-1.473581791833761e-03,-4.869911769015295e+03,-1.329131373930067e+02,-4.019618594214520e+03,9.331049812738753e+03,
545,1.153846153843475e+00,1.250000000003626e-01,-6.510743056453321e-04,-4.504962661881213e-03,-1.885683491889935e-04,-1.286463634396356e-03,-3.260365965076361e-04,-1.757232747156505e-03,-2.337367594937130e+03,-1.341303294945288e+02,-3.791745444497925e+03,7.897062017694812e+03,
546,1.269230769227824e+00,1.250000000003469e-01,-6.568142245397478e-04,-5.154801366403445e-03,-1.905843013915222e-04,-1.475178934600969e-03,-3.609724459236314e-04,-2.081631551468054e-03,4.029548749187131e+01,-1.365311753695651e+02,-3.563810157260649e+03,7.129813392836828e+03,
547,1.384615384612172e+00,1.250000000003311e-01,-6.537023953163453e-04,-5.802045232870560e-03,-1.899372147773744e-04,-1.663171922757186e-03,-3.950933276778389e-04,-2.448361423640543e-03,2.263160168959080e+03,-1.398857744774244e+02,-3.335313355173415e+03,7.090267309139989e+03,
548,1.499999999996519e+00,1.250000000003153e-01,-6.422909966216845e-04,-6.438808469719302e-03,-1.867845689386937e-04,-1.848040680587368e-03,-4.272508735098927e-04,-2.853895874011669e-03,4.331352097500463e+03,-1.439780655198273e+02,-3.105869712657808e+03,7.655996783963509e+03,
549,1.615384615381010e+00,1.250000000002995e-01,-6.231365028277853e-04,-7.057754425917695e-03,-1.812911771320204e-04,-2.027559700371350e-03,-4.557262654876285e-04,-3.293306693575329e-03,6.245020852461440e+03,-1.486068819537084e+02,-2.875190850152598e+03,8.599149103573414e+03,
550,1.730769230765501e+00,1.250000000002837e-01,-5.968007180349463e-04,-7.652095083669984e-03,-1.736296637407201e-04,-2.199685258450796e-03,-4.774622473833896e-04,-3.760666452505004e-03,8.004344302036544e+03,-1.535829876835726e+02,-2.643074573548990e+03,9.720861611489225e+03,
551,1.846153846149992e+00,1.250000000002680e-01,-5.638514830154821e-04,-8.215590422734153e-03,-1.639806582922264e-04,-2.362557989974853e-03,-4.905464343075636e-04,-4.249796295395823e-03,9.609525386541145e+03,-1.587312730931448e+02,-2.409398357557714e+03,1.089218251546020e+04,
552,1.961538461534483e+00,1.250000000002522e-01,-5.248630850756527e-04,-8.742547682045947e-03,-1.525311835462537e-04,-2.514504512218541e-03,-4.931427152886354e-04,-4.755137290531859e-03,1.106078796972438e+04,-1.638911111352235e+02,-2.174111940700191e+03,1.203746116882908e+04,
553,2.076923076918974e+00,1.250000000002364e-01,-4.804164060706414e-04,-9.227820535889993e-03,-1.394739537781216e-04,-2.654043107289776e-03,-4.842157492668038e-04,-5.266367232527256e-03,1.235837130835497e+04,-1.689152597953033e+02,-1.937228629395210e+03,1.311275439451040e+04,
554,2.192307692303467e+00,1.250000000002206e-01,-4.310988415520416e-04,-9.666808175650151e-03,-1.250036438669315e-04,-2.779886131568418e-03,-4.637802571787343e-04,-5.769126871860735e-03,1.350252353107749e+04,-1.736687317485292e+02,-1.698815565722227e+03,1.409191726186124e+04,
555,2.307692307687957e+00,1.250000000002049e-01,-3.775040195486343e-04,-1.005545431526206e-02,-1.093145577775185e-04,-2.890936437044806e-03,-4.301458567022179e-04,-6.247705925741927e-03,1.449349432330067e+04,-1.780307767979505e+02,-1.458984001473098e+03,1.495888318120848e+04,
556,2.423076923072448e+00,1.250000000001891e-01,-3.202313428190560e-04,-1.039024616030936e-02,-9.260122019845453e-05,-2.986286948619519e-03,-3.821926271756129e-04,-6.683995030181718e-03,1.533152633225594e+04,-1.818975791191844e+02,-1.217880121890325e+03,1.570347889542976e+04,
557,2.538461538456939e+00,1.250000000001733e-01,-2.598853917454913e-04,-1.066821338069193e-02,-7.505322303663769e-05,-3.065208737065157e-03,-3.220182726121669e-04,-7.062403758752354e-03,1.601684505987745e+04,-1.851815092818056e+02,-9.756773297868582e+02,1.631911302599447e+04,
558,2.653846153841430e+00,1.250000000001575e-01,-1.970752224525801e-04,-1.088692715382878e-02,-5.684994882802680e-05,-3.127134485541147e-03,-2.514371841501156e-04,-7.371118686510661e-03,1.654964898678479e+04,-1.878105700591594e+02,-7.325705049275609e+02,1.680146394204226e+04,
559,2.769230769225922e+00,1.250000000001417e-01,-1.324135747620712e-04,-1.104449933023437e-02,-3.816333597328692e-05,-3.171647385760166e-03,-1.716404084622309e-04,-7.600216968369784e-03,1.693010135244099e+04,-1.897295450249557e+02,-4.887712647856085e+02,1.714771703040817e+04,
560,2.884615384610413e+00,1.250000000001260e-01,-6.651600934441951e-05,-1.113958174959894e-02,-1.915992546370827e-05,-3.198463092344203e-03,-8.644635428468123e-05,-7.741757845360409e-03,1.715832335125936e+04,-1.908984592159733e+02,-2.445036811395341e+02,1.735611205395483e+04,
561,2.999999999994904e+00,1.250000000001102e-01,-3.010191206840796e-15,-1.117136573053010e-02,1.577282112461661e-13,-3.207418706810143e-03,-8.516462553563271e-11,-7.789741477639163e-03,1.723438908429870e+04,-1.912912389744842e+02,-3.412071691855090e-08,1.742568032327318e+04,
562,3.115384615379715e+00,1.250000000000944e-01,6.651600933843110e-05,-1.113958174960381e-02,1.915992558015557e-05,-3.198463092419243e-03,8.644669394530937e-05,-7.741757890725428e-03,1.715832335111563e+04,-1.908984592322835e+02,2.445036811023933e+02,1.735611205382537e+04,
563,3.230769230764527e+00,1.250000000000786e-01,1.324135747561010e-04,-1.104449933024355e-02,3.816333589202982e-05,-3.171647385714442e-03,1.716403716332043e-04,-7.600216899287549e-03,1.693010135234598e+04,-1.897295450699722e+02,4.887712647879595e+02,1.714771703035852e+04,
564,3.346153846149337e+00,1.250000000000628e-01,1.970752224468162e-04,-1.088692715384158e-02,5.684994880338358e-05,-3.127134485628028e-03,2.514376684960528e-04,-7.371118699853819e-03,1.654964898695099e+04,-1.878105700549243e+02,7.325705048306119e+02,1.680146394218669e+04,
565,3.461538461534150e+00,1.250000000000471e-01,2.598853917407578e-04,-1.066821338070909e-02,7.505322319214367e-05,-3.065208737124138e-03,3.220185141428542e-04,-7.062403631705024e-03,1.601684506007405e+04,-1.851815092605918e+02,9.756773298628948e+02,1.631911302618679e+04,
566,3.576923076918959e+00,1.250000000000313e-01,3.202313428149557e-04,-1.039024616033021e-02,9.260121998115912e-05,-2.986286948689468e-03,3.821920076311005e-04,-6.683995011954973e-03,1.533152633227670e+04,-1.818975791266995e+02,1.217880121886686e+03,1.570347889545656e+04,
567,3.692307692303771e+00,1.250000000000155e-01,3.775040195455238e-04,-1.005545431528655e-02,1.093145583344491e-04,-2.890936437026789e-03,4.301464165620155e-04,-6.247706060053461e-03,1.449349432329972e+04,-1.780307768342215e+02,1.458984001357360e+03,1.495888318119796e+04,
568,3.807692307688582e+00,1.249999999999997e-01,4.310988415483248e-04,-9.666808175677251e-03,1.250036436648856e-04,-2.779886131486595e-03,4.637799352995634e-04,-5.769126879330238e-03,1.350252353108329e+04,-1.736687317435007e+02,1.698815565795745e+03,1.409191726189744e+04,
569,3.923076923073396e+00,1.249999999999840e-01,4.804164060681703e-04,-9.227820535919418e-03,1.394739536487284e-04,-2.654043107248489e-03,4.842160710967337e-04,-5.266367187864942e-03,1.235837130837750e+04,-1.689152598203186e+02,1.937228629183395e+03,1.311275439443066e+04,
570,4.038461538458206e+00,1.249999999999682e-01,5.248630850737460e-04,-8.742547682077256e-03,1.525311833228113e-04,-2.514504512188391e-03,4.931425967225518e-04,-4.755137215810840e-03,1.106078796978229e+04,-1.638911110501303e+02,2.174111940593983e+03,1.203746116872700e+04,
571,4.153846153843016e+00,1.249999999999524e-01,5.638514830144474e-04,-8.215590422766848e-03,1.639806579692693e-04,-2.362557989839118e-03,4.905466903746972e-04,-4.249796221793761e-03,9.609525386454457e+03,-1.587312731232638e+02,2.409398357617059e+03,1.089218251546198e+04,
572,4.269230769227828e+00,1.249999999999366e-01,5.968007180346030e-04,-7.652095083703014e-03,1.736296631980187e-04,-2.199685258416572e-03,4.774620208740318e-04,-3.760666326255617e-03,8.004344301940647e+03,-1.535829877442608e+02,2.643074573570565e+03,9.720861611483142e+03,
573,4.384615384612641e+00,1.249999999999208e-01,6.231365028279812e-04,-7.057754425950206e-03,1.812911772622682e-04,-2.027559700439346e-03,4.557268486595036e-04,-3.293306864444563e-03,6.245020852477808e+03,-1.486068820320512e+02,2.875190850250129e+03,8.599149103774276e+03,
574,4.499999999997451e+00,1.249999999999051e-01,6.422909966225109e-04,-6.438808469752109e-03,1.867845692699781e-04,-1.848040680640503e-03,4.272505740882080e-04,-2.853895999563166e-03,4.331352097784436e+03,-1.439780653945085e+02,3.105869712646384e+03,7.655996784037713e+03,
575,4.615384615382261e+00,1.249999999998893e-01,6.537023953179645e-04,-5.802045232901730e-03,1.899372146883846e-04,-1.663171923016011e-03,3.950930519743967e-04,-2.448361525638700e-03,2.263160169220112e+03,-1.398857744885174e+02,3.335313355373995e+03,7.090267309609634e+03,
576,4.730769230767073e+00,1.249999999998735e-01,6.568142245419357e-04,-5.154801366432636e-03,1.905843014823265e-04,-1.475178934756243e-03,3.609719410825956e-04,-2.081631522620012e-03,4.029548747282479e+01,-1.365311754312167e+02,3.563810157379933e+03,7.129813393076379e+03,
577,4.846153846151885e+00,1.249999999998577e-01,6.510743056478189e-04,-4.504962661908397e-03,1.885683494034360e-04,-1.286463634175406e-03,3.260369975935594e-04,-1.757232676292159e-03,-2.337367594589323e+03,-1.341303294171721e+02,3.791745444625703e+03,7.897062017864768e+03,
578,4.961538461536699e+00,1.249999999998420e-01,6.359333234127277e-04,-3.860964288447764e-03,1.837445044080772e-04,-1.099601721778114e-03,2.929657942565041e-04,-1.473581817173620e-03,-4.869911769234765e+03,-1.329131373891154e+02,4.019618594347889e+03,9.331049813081952e+03,
579,5.076923076921506e+00,1.249999999998261e-01,6.108431796213488e-04,-3.231790761651635e-03,1.759806555021200e-04,-9.173390976171788e-04,2.613449408754424e-04,-1.223993360624286e-03,-7.557441806882862e+03,-1.332433812835612e+02,4.248123894248246e+03,1.128294947016083e+04,
580,5.192307692306321e+00,1.249999999998104e-01,5.752545282284967e-04,-2.626974726181175e-03,1.651537851703742e-04,-7.425804209727566e-04,2.308622877373474e-04,-1.001712302075080e-03,-1.039950212977819e+04,-1.354747822289175e+02,4.478195562251179e+03,1.362230521484172e+04,
581,5.307692307691132e+00,1.249999999997946e-01,5.286184214086588e-04,-2.056597676933142e-03,1.511555718995557e-04,-5.783738555208742e-04,2.029837208278817e-04,-8.020945804299519e-04,-1.339682811966612e+04,-1.418857114144853e+02,4.711629000967078e+03,1.626318817504993e+04,
582,5.423076923075944e+00,1.249999999997788e-01,4.703739666400382e-04,-1.531286614267123e-03,1.338899746435942e-04,-4.278889585124592e-04,1.759964599340530e-04,-6.192677139840522e-04,-1.654752759722866e+04,-1.480571886163149e+02,4.949160263932284e+03,1.915513975295657e+04,
583,5.538461538460754e+00,1.249999999997630e-01,3.999583619384645e-04,-1.062235330397157e-03,1.132769190020181e-04,-2.944002862517032e-04,1.494780567658613e-04,-4.515663844004569e-04,-1.987666210615742e+04,-1.615076126134844e+02,5.194230097714676e+03,2.228469030380107e+04,
584,5.653846153845566e+00,1.249999999997473e-01,3.166095237433492e-04,-6.612761794325228e-04,8.919890245288160e-05,-1.812868111149243e-04,1.197220446312784e-04,-3.006966782603943e-04,-2.348673074917154e+04,-9.822681770653219e+01,5.418167330492509e+03,2.577689401454372e+04,
585,5.769230769230377e+00,1.249999999997315e-01,2.187433858285298e-04,-3.400933650408692e-04,6.131667991627111e-05,-9.177959130503302e-05,8.401850449960757e-05,-1.680902727886425e-04,-2.694034498103967e+04,2.102022086342840e+02,5.770921347161240e+03,2.950197189137020e+04,
586,5.884615384615189e+00,1.249999999997157e-01,1.085327562014303e-04,-1.103250528417347e-04,3.028163882403600e-05,-2.890814269784125e-05,4.179953816551210e-05,-6.156270618228000e-05,-2.892627945822786e+04,-1.649159038839238e+03,5.929326252483626e+03,2.974338477052324e+04,
587,1.153846153842823e-01,8.333333333366982e-02,-1.504158082643958e-04,-1.223716753506694e-04,-4.200394656400030e-05,-3.235062648196967e-05,-5.963449331790654e-05,-6.588624000681828e-05,-3.917810838586448e+04,-6.765611079108016e+02,-5.019702261051523e+03,3.978892793171143e+04,
588,2.307692307685646e-01,8.333333333365928e-02,-2.998535372316501e-04,-3.536061079126337e-04,-8.414398209715795e-05,-9.562101482327439e-05,-1.162975373029506e-04,-1.737242664995125e-04,-3.610738316801334e+04,3.656464990893709e+02,-4.041891148795111e+03,3.735812400713114e+04,
589,3.461538461528468e-01,8.333333333364876e-02,-4.294114776073685e-04,-6.723529217861029e-04,-1.211558545026132e-04,-1.844588527468844e-04,-1.632459521508402e-04,-3.048306767959816e-04,-3.116370391116498e+04,-1.289024465070708e+02,-3.897394100837927e+03,3.199871286567193e+04,
590,4.615384615371291e-01,8.333333333363825e-02,-5.401061113748810e-04,-1.071429566559274e-03,-1.532133647763763e-04,-2.970428274488397e-04,-2.022588473563908e-04,-4.550519397554169e-04,-2.641833838011076e+04,-6.521810278560525e+01,-3.730992231721490e+03,2.738919787952599e+04,
591,5.769230769214114e-01,8.333333333362775e-02,-6.337942524698236e-04,-1.538796299264267e-03,-1.806830625967938e-04,-4.300417857106722e-04,-2.378253106055598e-04,-6.222878809970928e-04,-2.202079207779460e+04,-8.268293559687095e+01,-3.564799706777550e+03,2.306754907944805e+04,
592,6.923076923056937e-01,8.333333333361720e-02,-7.111074702464288e-04,-2.062495044867427e-03,-2.036163873222914e-04,-5.800485775182216e-04,-2.727436627660478e-04,-8.051451483048354e-04,-1.780913732459252e+04,-7.366959515197550e+01,-3.394369580006007e+03,1.899036058016560e+04,
593,8.076923076899760e-01,8.333333333360668e-02,-7.728704855221309e-04,-2.631352832368614e-03,-2.221422958296600e-04,-7.437980637687812e-04,-3.096655940081668e-04,-1.005038737902138e-03,-1.381207717624510e+04,-7.017349894557276e+01,-3.230419293614161e+03,1.518493832474787e+04,
594,9.230769230742583e-01,8.333333333359616e-02,-8.198358235352738e-04,-3.234733863015757e-03,-2.363928587774432e-04,-9.181220960224513e-04,-3.497611493072076e-04,-1.227071415069191e-03,-1.002165136279299e+04,-6.841015557923021e+01,-3.070017138381063e+03,1.169474375301964e+04,
595,1.038461538458541e+00,8.333333333358567e-02,-8.527581685279319e-04,-3.862562863600250e-03,-2.465243373865465e-04,-1.099977141860342e-03,-3.921011823137603e-04,-1.476462071324697e-03,-6.438704804770169e+03,-6.821790470905626e+01,-2.911560223239351e+03,8.630865256626856e+03,
596,1.153846153842823e+00,8.333333333357509e-02,-8.723862924036854e-04,-4.505307827602680e-03,-2.527115617661693e-04,-1.286459536091358e-03,-4.368773745845337e-04,-1.760287249796937e-03,-3.062791179914060e+03,-6.908800500235921e+01,-2.753716260376666e+03,6.268498358468939e+03,
597,1.269230769227105e+00,8.333333333356460e-02,-8.794679337482281e-04,-5.153984542059919e-03,-2.551438452301793e-04,-1.474824704786425e-03,-4.839552632904994e-04,-2.084549060379663e-03,1.062331680349915e+02,-7.081834978175308e+01,-2.595596568278673e+03,5.194211530251855e+03,
598,1.384615384611387e+00,8.333333333355408e-02,-8.747516191497499e-04,-5.800157051484177e-03,-2.540253351840361e-04,-1.662499272254097e-03,-5.301579361678335e-04,-2.450760049429677e-03,3.068571732917204e+03,-7.323827365139175e+01,-2.436509817472966e+03,5.798041952240699e+03,
599,1.499999999995670e+00,8.333333333354356e-02,-8.589885309715443e-04,-6.435938184913870e-03,-2.495746877027039e-04,-1.847081717618073e-03,-5.731403570694960e-04,-2.855913730435155e-03,5.824450365277069e+03,-7.619651477736323e+01,-2.275921075441964e+03,7.452308405431148e+03,
600,1.615384615380135e+00,8.333333333353304e-02,-8.329338336398321e-04,-7.053989397212171e-03,-2.420197302460191e-04,-2.026345226577239e-03,-6.109017058660359e-04,-3.294655502822408e-03,8.374135719518961e+03,-7.954901860855836e+01,-2.113425103805459e+03,9.451510372910279e+03,
601,1.730769230764600e+00,8.333333333352250e-02,-7.973476684151751e-04,-7.647520404822676e-03,-2.315977856438084e-04,-2.198245289959686e-03,-6.397850886938906e-04,-3.760972907529449e-03,1.071792920584552e+04,-8.316014656543902e+01,-1.948736365345862e+03,1.148276207561800e+04,
602,1.846153846149066e+00,8.333333333351201e-02,-7.529958261404138e-04,-8.210288661925259e-03,-2.185555290457534e-04,-2.360921443967717e-03,-6.577207746883430e-04,-4.248783643830797e-03,1.285616173489110e+04,-8.690362882082992e+01,-1.781679566361601e+03,1.342462175698374e+04,
603,1.961538461533531e+00,8.333333333350146e-02,-7.006501371829171e-04,-8.736598731786954e-03,-2.031463695304375e-04,-2.512699116394890e-03,-6.623400932092750e-04,-4.752589242302710e-03,1.478918712694748e+04,-9.066277831822710e+01,-1.612180049923778e+03,1.522519068047178e+04,
604,2.076923076917997e+00,8.333333333349094e-02,-6.410886048755838e-04,-9.221301563648634e-03,-1.856299569362243e-04,-2.652095042893901e-03,-6.513264637592736e-04,-5.262852226238844e-03,1.651737515510457e+04,-9.433002639023314e+01,-1.440252897932014e+03,1.685959853249500e+04,
605,2.192307692302463e+00,8.333333333348045e-02,-5.750953149157191e-04,-9.659793666962693e-03,-1.662676357949134e-04,-2.777818883776448e-03,-6.239889724961835e-04,-5.764778441584800e-03,1.804110311810150e+04,-9.780592342787281e+01,-1.265991239188836e+03,1.831477426799707e+04,
606,2.307692307686928e+00,8.333333333346993e-02,-5.034601546706439e-04,-1.004801619591584e-02,-1.453188603592071e-04,-2.888771835150832e-03,-5.783983186633487e-04,-6.241710063148728e-03,1.936074563193524e+04,-1.010007463151287e+02,-1.089554665124727e+03,1.958336257041986e+04,
607,2.423076923071393e+00,8.333333333345941e-02,-4.269783696369559e-04,-1.038245398742132e-02,-1.230409781426954e-04,-2.984045759647026e-03,-5.135758287932129e-04,-6.676414424015909e-03,2.047666254571831e+04,-1.038369991477793e+02,-9.111580183458721e+02,2.066102120549266e+04,
608,2.538461538455859e+00,8.333333333344889e-02,-3.464499951252792e-04,-1.066013459880030e-02,-9.968324095893179e-05,-3.062908602481128e-03,-4.323722227052355e-04,-7.053716063421487e-03,2.138918518057182e+04,-1.062487616136619e+02,-7.310613300104759e+02,2.154510345846142e+04,
609,2.653846153840325e+00,8.333333333343837e-02,-2.626791974451647e-04,-1.087862740596997e-02,-7.548102048982668e-05,-3.124790342811066e-03,-3.376033011260539e-04,-7.360974817206967e-03,2.209860309671328e+04,-1.081813905209804e+02,-5.495613724303480e+02,2.223396833834973e+04,
610,2.769230769224790e+00,8.333333333342785e-02,-1.764735368211027e-04,-1.103604281128378e-02,-5.065812411013421e-05,-3.169273391553219e-03,-2.311057723326014e-04,-7.588924491562381e-03,2.260515328262630e+04,-1.095929829090912e+02,-3.669839034592603e+02,2.272660130000186e+04,
611,2.884615384609255e+00,8.333333333341730e-02,-8.864316766862556e-05,-1.113103159603047e-02,-2.542920426414960e-05,-3.196071949348132e-03,-1.169517516854402e-04,-7.730546944470670e-03,2.290901146370437e+04,-1.104533038471110e+02,-1.836762467992323e+02,2.302239574933714e+04,
612,2.999999999993721e+00,8.333333333340678e-02,-4.931114569407332e-15,-1.116278443692475e-02,1.935088353830471e-13,-3.205021869774748e-03,5.659854353400200e-10,-7.778865891822331e-03,2.301028544239120e+04,-1.107424948672016e+02,2.459626102790935e-08,2.312102793725840e+04,
613,3.115384615378542e+00,8.333333333339626e-02,8.864316765908351e-05,-1.113103159603673e-02,2.542920443712105e-05,-3.196071949455080e-03,1.169510150265293e-04,-7.730546881805400e-03,2.290901146374759e+04,-1.104533037741702e+02,1.836762468217188e+02,2.302239574930815e+04,
614,3.230769230763364e+00,8.333333333338577e-02,1.764735368121480e-04,-1.103604281129541e-02,5.065812401689516e-05,-3.169273391519808e-03,2.311055394057568e-04,-7.588924500931308e-03,2.260515328266413e+04,-1.095929829556366e+02,3.669839035327440e+02,2.272660130009096e+04,
615,3.346153846148185e+00,8.333333333337523e-02,2.626791974359992e-04,-1.087862740598648e-02,7.548102035157728e-05,-3.124790343000367e-03,3.376033495388423e-04,-7.360974867657734e-03,2.209860309652656e+04,-1.081813906212113e+02,5.495613724942067e+02,2.223396833826966e+04,
616,3.461538461533006e+00,8.333333333336473e-02,3.464499951168884e-04,-1.066013459882216e-02,9.968324090445116e-05,-3.062908602533163e-03,4.323726974793583e-04,-7.053716138401772e-03,2.138918518073144e+04,-1.062487616063169e+02,7.310613298267349e+02,2.154510345858841e+04,
617,3.576923076917827e+00,8.333333333335419e-02,4.269783696293116e-04,-1.038245398744800e-02,1.230409780805298e-04,-2.984045759773961e-03,5.135760769760468e-04,-6.676414398899332e-03,2.047666254588672e+04,-1.038369991587036e+02,9.111580183724046e+02,2.066102120567597e+04,
618,3.692307692302649e+00,8.333333333334370e-02,5.034601546638951e-04,-1.004801619594702e-02,1.453188603381469e-04,-2.888771835083777e-03,5.783981063541806e-04,-6.241709876943761e-03,1.936074563203764e+04,-1.010007463001551e+02,1.089554665110810e+03,1.958336257050364e+04,
619,3.807692307687469e+00,8.333333333333315e-02,5.750953149098305e-04,-9.659793666997422e-03,1.662676357058488e-04,-2.777818883627414e-03,6.239885737262788e-04,-5.764778538272904e-03,1.804110311823566e+04,-9.780592338308480e+01,1.265991239120923e+03,1.831477426806680e+04,
620,3.923076923072291e+00,8.333333333332266e-02,6.410886048699994e-04,-9.221301563686246e-03,1.856299567264071e-04,-2.652095042840512e-03,6.513263832165388e-04,-5.262852167421919e-03,1.651737515522436e+04,-9.433002646454696e+01,1.440252898068999e+03,1.685959853273306e+04,
621,4.038461538457113e+00,8.333333333331211e-02,7.006501371791293e-04,-8.736598731827316e-03,2.031463692756008e-04,-2.512699116500854e-03,6.623399579009353e-04,-4.752589034254267e-03,1.478918712711729e+04,-9.066277824207739e+01,1.612180049977962e+03,1.522519068058627e+04,
622,4.153846153841933e+00,8.333333333330159e-02,7.529958261365051e-04,-8.210288661967463e-03,2.185555290839239e-04,-2.360921443859584e-03,6.577214419578194e-04,-4.248783595755925e-03,1.285616173513860e+04,-8.690362875933187e+01,1.781679566320251e+03,1.342462175714112e+04,
623,4.269230769226755e+00,8.333333333329107e-02,7.973476684129684e-04,-7.647520404865537e-03,2.315977853676519e-04,-2.198245289887570e-03,6.397851082457575e-04,-3.760973017107728e-03,1.071792920600238e+04,-8.316014662720980e+01,1.948736365314434e+03,1.148276207580231e+04,
624,4.384615384611577e+00,8.333333333328055e-02,8.329338336382811e-04,-7.053989397254828e-03,2.420197301802821e-04,-2.026345226547252e-03,6.109014328308899e-04,-3.294655446718876e-03,8.374135719530808e+03,-7.954901864002802e+01,2.113425103696251e+03,9.451510372851344e+03,
625,4.499999999996398e+00,8.333333333327003e-02,8.589885309707720e-04,-6.435938184957049e-03,2.495746877319374e-04,-1.847081717668740e-03,5.731406271197636e-04,-2.855913708152177e-03,5.824450365440494e+03,-7.619651469274538e+01,2.275921075413618e+03,7.452308405458919e+03,
626,4.615384615381288e+00,8.333333333325951e-02,8.747516191498818e-04,-5.800157051524982e-03,2.540253350108767e-04,-1.662499272428102e-03,5.301585850808149e-04,-2.450760039830704e-03,3.068571733037816e+03,-7.323827370373068e+01,2.436509817321053e+03,5.798041952079064e+03,
627,4.730769230766182e+00,8.333333333324899e-02,8.794679337488852e-04,-5.153984542098050e-03,2.551438451393937e-04,-1.474824704895130e-03,4.839549815656246e-04,-2.084549250104487e-03,1.062331682504593e+02,-7.081834975073701e+01,2.595596568504103e+03,5.194211530708740e+03,
628,4.846153846151075e+00,8.333333333323850e-02,8.723862924052005e-04,-4.505307827637998e-03,2.527115614353161e-04,-1.286459535944122e-03,4.368773147649566e-04,-1.760287291298760e-03,-3.062791179733343e+03,-6.908800502396237e+01,2.753716260381109e+03,6.268498358380124e+03,
629,4.961538461535967e+00,8.333333333322795e-02,8.527581685310409e-04,-3.862562863632603e-03,2.465243376177105e-04,-1.099977141700542e-03,3.921007201758687e-04,-1.476462031797821e-03,-6.438704804696697e+03,-6.821790468389179e+01,2.911560223334433e+03,8.630865256719499e+03,
630,5.076923076920858e+00,8.333333333321744e-02,8.198358235383728e-04,-3.234733863044060e-03,2.363928590939669e-04,-9.181220961155650e-04,3.497609969207194e-04,-1.227071298696732e-03,-1.002165136266969e+04,-6.841015560986594e+01,3.070017138429132e+03,1.169474375293909e+04,
631,5.192307692305754e+00,8.333333333320692e-02,7.728704855263844e-04,-2.631352832392146e-03,2.221422960430886e-04,-7.437980637341967e-04,3.096654263569578e-04,-1.005038675629304e-03,-1.381207717601893e+04,-7.017349893710745e+01,3.230419293649956e+03,1.518493832458132e+04,
632,5.307692307690645e+00,8.333333333319642e-02,7.111074702511315e-04,-2.062495044885684e-03,2.036163874614742e-04,-5.800485774980021e-04,2.727428544120954e-04,-8.051450483934548e-04,-1.780913732441606e+04,-7.366959512856344e+01,3.394369580027771e+03,1.899036058003823e+04,
633,5.423076923075539e+00,8.333333333318588e-02,6.337942524747981e-04,-1.538796299277113e-03,1.806830632339662e-04,-4.300417859537261e-04,2.378254756282939e-04,-6.222881613203475e-04,-2.202079207762780e+04,-8.268293557590107e+01,3.564799706774249e+03,2.306754907930732e+04,
634,5.538461538460429e+00,8.333333333317536e-02,5.401061113797720e-04,-1.071429566567954e-03,1.532133650811845e-04,-2.970428274039674e-04,2.022587594911343e-04,-4.550521319676797e-04,-2.641833838031571e+04,-6.521810286563081e+01,3.730992231565609e+03,2.738919787956125e+04,
635,5.653846153845323e+00,8.333333333316484e-02,4.294114776108876e-04,-6.723529217919479e-04,1.211558542869555e-04,-1.844588524528147e-04,1.632458774533408e-04,-3.048303786684138e-04,-3.116370391152205e+04,-1.289024465524034e+02,3.897394100698717e+03,3.199871286590645e+04,
636,5.769230769230214e+00,8.333333333315432e-02,2.998535372345488e-04,-3.536061079154769e-04,8.414398212706934e-05,-9.562101474221201e-05,1.162984697508637e-04,-1.737242294941790e-04,-3.610738316793440e+04,3.656464990861564e+02,4.041891148808370e+03,3.735812400705666e+04,
637,5.884615384615108e+00,8.333333333314380e-02,1.504158082664439e-04,-1.223716753512822e-04,4.200394651170758e-05,-3.235062641350183e-05,5.963387744587861e-05,-6.588652612078351e-05,-3.917810838571341e+04,-6.765611078765661e+02,5.019702260917603e+03,3.978892793153079e+04,
638,1.153846153842169e-01,4.166666666683491e-02,-1.997913875277438e-04,-1.410049067454889e-04,-5.567883256925538e-05,-3.761544067359042e-05,-8.167998238103867e-05,-7.382834609564944e-05,-4.982628051919596e+04,1.942705129663243e+03,-2.410712902744589e+03,5.199301897283545e+04,
639,2.307692307684339e-01,4.166666666682964e-02,-3.878682780721050e-04,-3.709698593896511e-04,-1.087685851364507e-04,-1.005348411879704e-04,-1.529106683430607e-04,-1.807559075335673e-04,-4.521406351156822e+04,-2.961037888044968e+02,-2.171682241792421e+03,4.512746304295302e+04,
640,3.461538461526507e-01,4.166666666682438e-02,-5.473484047082582e-04,-6.864910202811819e-04,-1.544774496739615e-04,-1.884972657671925e-04,-2.086894151763898e-04,-3.101538523370817e-04,-3.857411995810330e+04,2.464203102191937e+01,-1.928870991393310e+03,3.879106340768312e+04,
641,4.615384615368677e-01,4.166666666681913e-02,-6.855547009348277e-04,-1.083486833081776e-03,-1.946029729996446e-04,-3.004952726720143e-04,-2.567645358361515e-04,-4.600814564506406e-04,-3.295773683486562e+04,-4.229467973746063e+01,-1.872472602318071e+03,3.312779719289097e+04,
642,5.769230769210845e-01,4.166666666681387e-02,-8.021866196560886e-04,-1.548642786357265e-03,-2.288733478422006e-04,-4.328554605323443e-04,-3.000556031667729e-04,-6.266968348592660e-04,-2.742514515863332e+04,-3.893685204187835e+01,-1.786651606086629e+03,2.761834356470615e+04,
643,6.923076923053014e-01,4.166666666680860e-02,-8.983453961318011e-04,-2.070302793624872e-03,-2.574396601589652e-04,-5.822600775706594e-04,-3.422706881333904e-04,-8.094865728667437e-04,-2.216589695930815e+04,-3.720540615946101e+01,-1.705982429896317e+03,2.239018745028397e+04,
644,8.076923076895186e-01,4.166666666680334e-02,-9.749881437615479e-04,-2.637216741247356e-03,-2.804435606734184e-04,-7.454268199093405e-04,-3.878488177939546e-04,-1.009910906334189e-03,-1.716603926701055e+04,-3.496967867105309e+01,-1.630564396193431e+03,1.743870712642038e+04,
645,9.230769230737355e-01,4.166666666679808e-02,-1.033088318780280e-03,-3.238767522734193e-03,-2.980626491157754e-04,-9.191976063691870e-04,-4.370871390899817e-04,-1.231629610812095e-03,-1.242799709353808e+04,-3.411944268849726e+01,-1.559077721808622e+03,1.278010550014313e+04,
646,1.038461538457952e+00,4.166666666679283e-02,-1.073600632318191e-03,-3.864878318217569e-03,-3.104999758392484e-04,-1.100532114720649e-03,-4.905607875281537e-04,-1.481175964592654e-03,-7.949717080789571e+03,-3.397438124907057e+01,-1.489585988956927e+03,8.457803979716951e+03,
647,1.153846153842169e+00,4.166666666678755e-02,-1.097474295537788e-03,-4.506018925816382e-03,-3.179834311362521e-04,-1.286528830771253e-03,-5.474880640357588e-04,-1.765168392833387e-03,-3.730699754906873e+03,-3.438044821505210e+01,-1.420660708440692e+03,4.662175866594002e+03,
648,1.269230769226386e+00,4.166666666678230e-02,-1.105656469199004e-03,-5.153204847209513e-03,-3.207613505140711e-04,-1.474444858370474e-03,-6.073666308966558e-04,-2.089388492862323e-03,2.293939899544819e+02,-3.520873075130697e+01,-1.351189628910632e+03,2.715302607980833e+03,
649,1.384615384610603e+00,4.166666666677704e-02,-1.099095028744322e-03,-5.797999281697826e-03,-3.190981792808001e-04,-1.661708785428329e-03,-6.665224799294360e-04,-2.455046193216995e-03,3.930853574393558e+03,-3.638527797295225e+01,-1.280295567200742e+03,4.721822854502467e+03,
650,1.499999999994820e+00,4.166666666677178e-02,-1.078740244752151e-03,-6.432513513599839e-03,-3.132739380461764e-04,-1.845919571703446e-03,-7.211024083344504e-04,-2.859676586666018e-03,7.374022876324086e+03,-3.783811328720186e+01,-1.207287076895429e+03,7.795245453061530e+03,
651,1.615384615379260e+00,4.166666666676652e-02,-1.045546050178209e-03,-7.049406967376663e-03,-3.035801930035305e-04,-2.024849354246541e-03,-7.686249623159068e-04,-3.297561730659669e-03,1.055929730591127e+04,-3.949870864947047e+01,-1.131640612829251e+03,1.083775432756652e+04,
652,1.730769230763699e+00,4.166666666676125e-02,-1.000470978260738e-03,-7.641886953496972e-03,-2.903196678962604e-04,-2.196453080716529e-03,-8.051814363409458e-04,-3.762613741410953e-03,1.348711480382451e+04,-4.130101597080963e+01,-1.052986664488177e+03,1.369135341212285e+04,
653,1.846153846148139e+00,4.166666666675600e-02,-9.444788058556675e-04,-8.203708267081980e-03,-2.738054168687382e-04,-2.358869144554901e-03,-8.285115838920389e-04,-4.248957961246465e-03,1.615794582669119e+04,-4.318233186792077e+01,-9.710976398201624e+02,1.631712830476963e+04,
654,1.961538461532579e+00,4.166666666675073e-02,-8.785389243242114e-04,-8.729172668229380e-03,-2.543579048468831e-04,-2.510421717741366e-03,-8.358318844822701e-04,-4.750887843549870e-03,1.857228490094916e+04,-4.508337274622062e+01,-8.858754105927694e+02,1.870148396279748e+04,
655,2.076923076917019e+00,4.166666666674547e-02,-8.036264587739213e-04,-9.213128259874548e-03,-2.323041783745690e-04,-2.649626050374109e-03,-8.234484234142578e-04,-5.259534012408930e-03,2.073064256148374e+04,-4.694849232703501e+01,-7.973382673446703e+02,2.083869677426318e+04,
656,2.192307692301459e+00,4.166666666674022e-02,-7.207221660499516e-04,-9.650968754743172e-03,-2.079731086631823e-04,-2.775189079992169e-03,-7.893822722752720e-04,-5.759908566931488e-03,2.263353524766840e+04,-4.872531226275336e+01,-7.056075677662778e+02,2.272611872422048e+04,
657,2.307692307685898e+00,4.166666666673496e-02,-6.308121521085033e-04,-1.003863264102014e-02,-1.816908355208454e-04,-2.886009989496001e-03,-7.316482684337876e-04,-6.234620570121369e-03,2.428147204356475e+04,-5.036577595917598e+01,-6.108945502617202e+02,2.436249372050762e+04,
658,2.423076923070339e+00,4.166666666672970e-02,-5.348874427620423e-04,-1.037260229159267e-02,-1.537781982198057e-04,-2.981179038758518e-03,-6.497049576735118e-04,-6.667252497724084e-03,2.567493877109759e+04,-5.182785155278327e+01,-5.134872520099289e+02,2.574725611571501e+04,
659,2.538461538454778e+00,4.166666666672444e-02,-4.339434457455932e-04,-1.064990306804480e-02,-1.245441622284895e-04,-3.059960805572325e-03,-5.467989746475796e-04,-7.043067684422336e-03,2.681438031958364e+04,-5.307527794509031e+01,-4.137381095925741e+02,2.688019507329689e+04,
660,2.653846153839218e+00,4.166666666671918e-02,-3.289793364738837e-04,-1.086810247502681e-02,-9.428057231661462e-05,-3.121782176871224e-03,-4.268413315923400e-04,-7.348721091591571e-03,2.770018381021850e+04,-5.407754363926574e+01,-3.120526244226455e+02,2.776127754012555e+04,
661,2.769230769223658e+00,4.166666666671393e-02,-2.209973794843581e-04,-1.102530941162322e-02,-6.326285916851062e-05,-3.166224063327341e-03,-2.928081197343432e-04,-7.575348627906073e-03,2.833266497977710e+04,-5.481103531952704e+01,-2.088783877149764e+02,2.839054975218168e+04,
662,2.884615384608098e+00,4.166666666670865e-02,-1.110021965977629e-04,-1.112017356028088e-02,-3.175264790918234e-05,-3.192998842754612e-03,-1.487957533204976e-04,-7.716682839131332e-03,2.871205767150984e+04,-5.525867539182843e+01,-1.046942770725691e+02,2.876807837463815e+04,
663,2.999999999992538e+00,4.166666666670339e-02,-7.574632174474045e-15,-1.115188493027827e-02,-4.256362610458484e-14,-3.201940917960069e-03,-7.430528154028530e-10,-7.765123402725295e-03,2.883850572034191e+04,-5.540925316263952e+01,-6.210700576048112e-08,2.889391497350455e+04,
664,3.115384615377370e+00,4.166666666669813e-02,1.110021965838289e-04,-1.112017356028850e-02,3.175264846856561e-05,-3.192998842939409e-03,1.487965291264142e-04,-7.716682761217840e-03,2.871205767144413e+04,-5.525867535782817e+01,1.046942770412410e+02,2.876807837453798e+04,
665,3.230769230762201e+00,4.166666666669289e-02,2.209973794703864e-04,-1.102530941163726e-02,6.326285913337540e-05,-3.166224063332996e-03,2.928080206997870e-04,-7.575348626427651e-03,2.833266497985602e+04,-5.481103535332790e+01,2.088783878598202e+02,2.839054975229867e+04,
666,3.346153846147032e+00,4.166666666668761e-02,3.289793364612794e-04,-1.086810247504691e-02,9.428057243618860e-05,-3.121782177090222e-03,4.268410170534610e-04,-7.348721166595574e-03,2.770018381035239e+04,-5.407754364393227e+01,3.120526243688932e+02,2.776127754026165e+04,
667,3.461538461531863e+00,4.166666666668237e-02,4.339434457326979e-04,-1.064990306807145e-02,1.245441621897428e-04,-3.059960805613257e-03,5.467985136115153e-04,-7.043067666862529e-03,2.681438031986357e+04,-5.307527788040477e+01,4.137381097389155e+02,2.688019507352105e+04,
668,3.576923076916692e+00,4.166666666667709e-02,5.348874427503422e-04,-1.037260229162501e-02,1.537781982824626e-04,-2.981179038861830e-03,6.497043066147630e-04,-6.667252696202925e-03,2.567493877134354e+04,-5.182785158873133e+01,5.134872520255155e+02,2.574725611599793e+04,
669,3.692307692301525e+00,4.166666666667185e-02,6.308121520976351e-04,-1.003863264105810e-02,1.816908357264885e-04,-2.886009989474411e-03,7.316481556405169e-04,-6.234620265015274e-03,2.428147204374344e+04,-5.036577590790790e+01,6.108945502055524e+02,2.436249372062924e+04,
670,3.807692307686355e+00,4.166666666666657e-02,7.207221660405852e-04,-9.650968754785496e-03,2.079731086414587e-04,-2.775189079815553e-03,7.893823177884322e-04,-5.759908589657384e-03,2.263353524779703e+04,-4.872531225043838e+01,7.056075678587277e+02,2.272611872434804e+04,
671,3.923076923071188e+00,4.166666666666133e-02,8.036264587649418e-04,-9.213128259920380e-03,2.323041778930747e-04,-2.649626050257368e-03,8.234481831077602e-04,-5.259534256222142e-03,2.073064256178768e+04,-4.694849230078484e+01,7.973382673884528e+02,2.083869677454675e+04,
672,4.038461538456019e+00,4.166666666665605e-02,8.785389243166658e-04,-8.729172668278698e-03,2.543579048208336e-04,-2.510421717988078e-03,8.358315339677764e-04,-4.750887775288105e-03,1.857228490151032e+04,-4.508337265557338e+01,8.858754106742820e+02,1.870148396328131e+04,
673,4.153846153840849e+00,4.166666666665080e-02,9.444788058504451e-04,-8.203708267133666e-03,2.738054169220348e-04,-2.358869144506818e-03,8.285112202888624e-04,-4.248957909843259e-03,1.615794582683802e+04,-4.318233187566599e+01,9.710976396358494e+02,1.631712830487923e+04,
674,4.269230769225682e+00,4.166666666664554e-02,1.000470978255885e-03,-7.641886953549555e-03,2.903196675053881e-04,-2.196453080528909e-03,8.051811040018621e-04,-3.762613712303266e-03,1.348711480404330e+04,-4.130101599768852e+01,1.052986664314822e+03,1.369135341231227e+04,
675,4.384615384610512e+00,4.166666666664028e-02,1.045546050175697e-03,-7.049406967429466e-03,3.035801928165534e-04,-2.024849354250312e-03,7.686246898567638e-04,-3.297561800402967e-03,1.055929730619450e+04,-3.949870859305676e+01,1.131640612791745e+03,1.083775432777267e+04,
676,4.499999999995344e+00,4.166666666663502e-02,1.078740244749895e-03,-6.432513513653434e-03,3.132739377843550e-04,-1.845919571838826e-03,7.211022112092077e-04,-2.859676397223121e-03,7.374022876482578e+03,-3.783811324097459e+01,1.207287076957197e+03,7.795245453206539e+03,
677,4.615384615380317e+00,4.166666666662976e-02,1.099095028743006e-03,-5.797999281748289e-03,3.190981792604058e-04,-1.661708785467552e-03,6.665220047484216e-04,-2.455046183071716e-03,3.930853574581136e+03,-3.638527797924459e+01,1.280295567032142e+03,4.721822854482496e+03,
678,4.730769230765290e+00,4.166666666662450e-02,1.105656469198772e-03,-5.153204847256652e-03,3.207613507418197e-04,-1.474444858393579e-03,6.073673577379052e-04,-2.089388483961514e-03,2.293939900887874e+02,-3.520873073340556e+01,1.351189628938947e+03,2.715302608048537e+03,
679,4.846153846150264e+00,4.166666666661925e-02,1.097474295538873e-03,-4.506018925859748e-03,3.179834313996146e-04,-1.286528830712524e-03,5.474873067708356e-04,-1.765168505948387e-03,-3.730699754463732e+03,-3.438044820205047e+01,1.420660708491034e+03,4.662175866314336e+03,
680,4.961538461535238e+00,4.166666666661398e-02,1.073600632320262e-03,-3.864878318257116e-03,3.104999759422932e-04,-1.100532114625926e-03,4.905618579837515e-04,-1.481175835784200e-03,-7.949717080406066e+03,-3.397438121528089e+01,1.489585988864517e+03,8.457803979324548e+03,
681,5.076923076920210e+00,4.166666666660872e-02,1.033088318784051e-03,-3.238767522768519e-03,2.980626491711582e-04,-9.191976065000047e-04,4.370877617236304e-04,-1.231629572444867e-03,-1.242799709312679e+04,-3.411944267395104e+01,1.559077721821667e+03,1.278010549976474e+04,
682,5.192307692305184e+00,4.166666666660346e-02,9.749881437656713e-04,-2.637216741275877e-03,2.804435608019189e-04,-7.454268199606760e-04,3.878491859627152e-04,-1.009911055459542e-03,-1.716603926685172e+04,-3.496967877045049e+01,1.630564395988326e+03,1.743870712609000e+04,
683,5.307692307690158e+00,4.166666666659821e-02,8.983453961370046e-04,-2.070302793647254e-03,2.574396605372313e-04,-5.822600774917591e-04,3.422713213075793e-04,-8.094864437547590e-04,-2.216589695876535e+04,-3.720540604858789e+01,1.705982429876771e+03,2.239018744985114e+04,
684,5.423076923075132e+00,4.166666666659294e-02,8.021866196615605e-04,-1.548642786373177e-03,2.288733477691184e-04,-4.328554606837506e-04,3.000553369329273e-04,-6.266969054073520e-04,-2.742514515865740e+04,-3.893685207393480e+01,1.786651606115951e+03,2.761834356470583e+04,
685,5.538461538460106e+00,4.166666666658768e-02,6.855547009397957e-04,-1.083486833092659e-03,1.946029731250399e-04,-3.004952727058283e-04,2.567641126224000e-04,-4.600814079109965e-04,-3.295773683503632e+04,-4.229467977596653e+01,1.872472602453580e+03,3.312779719305295e+04,
686,5.653846153845079e+00,4.166666666658242e-02,5.473484047123936e-04,-6.864910202883203e-04,1.544774497196497e-04,-1.884972655777427e-04,2.086899170350770e-04,-3.101539829494180e-04,-3.857411995804058e+04,2.464203102240386e+01,1.928870991378245e+03,3.879106340761820e+04,
687,5.769230769230054e+00,4.166666666657716e-02,3.878682780758196e-04,-3.709698593930255e-04,1.087685849927100e-04,-1.005348410019452e-04,1.529105770437408e-04,-1.807558099890064e-04,-4.521406351172838e+04,-2.961037888686134e+02,2.171682241937239e+03,4.512746304307650e+04,
688,5.884615384615025e+00,4.166666666657190e-02,1.997913875295460e-04,-1.410049067462841e-04,5.567883257278166e-05,-3.761544059376035e-05,8.167994056695871e-05,-7.382854794227487e-05,-4.982628051938278e+04,1.942705129601381e+03,2.410712902675163e+03,5.199301897294699e+04,
