"PointID","x","y","Displacement_1","Displacement_2","Velocity_1","Velocity_2","Acceleration_1","Acceleration_2","Sxx","Syy","Sxy","Von_Mises_Stress"
0,5.000000000000000e-03,-3.000000000000000e-04,0.000000000000000e+00,0.000000000000000e+00,0.000000000000000e+00,0.000000000000000e+00,0.000000000000000e+00,0.000000000000000e+00,-2.632732042845727e+00,-9.214634914267206e-01,-4.211406550104037e-01,1.907322170029508e+00,
1,5.000000000000000e-03,3.000000000000000e-04,0.000000000000000e+00,0.000000000000000e+00,0.000000000000000e+00,0.000000000000000e+00,0.000000000000000e+00,0.000000000000000e+00,2.608807153493065e+00,9.130749345058504e-01,-4.035979413973675e-01,1.878050305958835e+00,
2,6.000000000000000e-03,3.000000000000000e-04,2.063278847679217e-08,-3.193543013950141e-08,3.954695114786876e-05,-6.796846755660573e-05,8.748010596882060e-06,7.616570967373661e-05,2.463003970506253e+00,5.202033174076082e-01,-1.578766350337976e-01,1.968292281455907e+00,
3,6.000000000000000e-03,-3.000000000000000e-04,-2.080761523732060e-08,-3.203918610261417e-08,-3.958180339044471e-05,-6.796673386928249e-05,8.475253939006796e-05,9.605535530485200e-05,-2.472346723891052e+00,-4.788516962039433e-01,-1.575281146441322e-01,2.018237561097941e+00,
4,4.500000000000000e-02,3.000000000000000e-04,4.849081590903523e-07,-4.723971164509669e-05,3.182271050560133e-04,-3.661893227916949e-02,-3.623906374377200e-02,9.220731411445388e-03,1.814102541233312e-02,1.720004361198655e-02,-5.020706608393895e-04,1.376134638211810e-03,
5,4.500000000000000e-02,-3.000000000000000e-04,-5.584679351300321e-07,-4.723874800379805e-05,-4.173806890095860e-04,-3.661767662622753e-02,-3.649393524878195e-02,1.027047897979524e-02,1.911535344417582e-02,1.824458959891963e-02,-1.160567952645356e-04,9.011694586001634e-04,
6,5.000000000000000e-03,-6.775721476948160e-16,0.000000000000000e+00,0.000000000000000e+00,0.000000000000000e+00,0.000000000000000e+00,0.000000000000000e+00,0.000000000000000e+00,-6.221150490968996e-03,-2.173154145813441e-03,-2.220395555137848e-01,4.440975603687177e-01,
7,5.287157539739163e-03,3.000000000000000e-04,5.359945639295761e-09,-2.569684351380518e-09,1.155352877648403e-05,-6.913846844233776e-06,-1.294093210903803e-07,7.030263762726980e-06,2.582359118432489e+00,4.346284650591310e-01,-1.527198895030427e-02,2.147947833171361e+00,
8,5.618250182314120e-03,3.000000000000000e-04,1.228107776795133e-08,-1.171563723455015e-08,2.499619515638512e-05,-2.705835149558437e-05,2.593344010584810e-06,3.294085619622455e-05,2.820769856232962e+00,5.311466095556843e-01,3.819130223548478e-02,2.290896967126800e+00,
9,6.000000000000000e-03,6.775721476948160e-16,-8.736947489636176e-11,-3.110303899747270e-08,-1.724805549819192e-08,-6.654588261344494e-05,4.706498193572545e-05,8.528643743865904e-05,-4.687217276014011e-03,2.068369131172741e-02,-1.758829248175769e-01,3.526795939264267e-01,
10,5.618250182455814e-03,-3.000000000000000e-04,-1.238154543137234e-08,-1.182356939655591e-08,-2.501554966793149e-05,-2.705952420028299e-05,5.819264622653148e-05,4.801224597345379e-05,-2.827334770433951e+00,-4.879379463159385e-01,3.858285830261565e-02,2.340669145460895e+00,
11,5.287157539191877e-03,-3.000000000000000e-04,-5.407931831565695e-09,-2.678249271408922e-09,-1.156212981820724e-05,-6.916536868582105e-06,2.936849981148499e-05,1.929817107163150e-05,-2.587432170003651e+00,-3.910141732693920e-01,-2.044145283589943e-02,2.196798449643095e+00,
12,6.974999999995934e-03,3.000000000000000e-04,3.530392274666264e-08,-1.217091923062442e-07,6.114156592140063e-05,-2.319759950462838e-04,2.784055533227447e-05,2.159264941845550e-04,2.180696749590742e+00,4.478499160729994e-01,-3.004316090138670e-02,1.733888264710346e+00,
13,7.949999999991868e-03,3.000000000000000e-04,5.243434164230850e-08,-2.638732040281125e-07,8.180282153034257e-05,-4.649586622127255e-04,3.032690041242732e-05,3.699695083845536e-04,2.491496521706749e+00,4.814979684874652e-01,-3.030792776997027e-02,2.010912346644291e+00,
14,8.924999999987804e-03,3.000000000000000e-04,7.168071113988688e-08,-4.657238533319124e-07,1.016543781266557e-04,-7.639199561085734e-04,9.244957658491571e-06,5.150001620976997e-04,2.759578941674991e+00,5.373071416800421e-01,-2.340690704371895e-02,2.222764829270564e+00,
15,9.899999999983738e-03,3.000000000000000e-04,9.259685921536334e-08,-7.334964309760669e-07,1.206584793973405e-04,-1.126323300926002e-03,-4.070542861393355e-05,6.213555781581989e-04,2.967353935350584e+00,5.745731116844299e-01,-1.863250230449576e-02,2.393070987386916e+00,
16,1.087499999997967e-02,3.000000000000000e-04,1.147840922207397e-07,-1.072016149953419e-06,1.388175091721718e-04,-1.549531115859863e-03,-1.259672968859179e-04,6.557130152008220e-04,3.122655355548615e+00,6.035291597405399e-01,-1.374258850339605e-02,2.519276131225308e+00,
17,1.184999999997561e-02,3.000000000000000e-04,1.378607205632976e-07,-1.484866427409769e-06,1.561243220784689e-04,-2.030944712800499e-03,-2.547091255279443e-04,5.901850833624142e-04,3.227955967357014e+00,6.228014541385686e-01,-9.326646532269334e-03,2.605221292536315e+00,
18,1.282499999997154e-02,3.000000000000000e-04,1.614725259634027e-07,-1.974452490414865e-06,1.725753142799120e-04,-2.567970646743143e-03,-4.356617226985544e-04,4.104467293638159e-04,3.287398600135178e+00,6.335957647285895e-01,-5.277032329362163e-03,2.653823821864004e+00,
19,1.379999999996747e-02,3.000000000000000e-04,1.852948656289030e-07,-2.542093289315798e-06,1.881677094418786e-04,-3.158031321274463e-03,-6.765391613917024e-04,1.188694891539541e-04,3.305119245375257e+00,6.364746548297935e-01,-1.640596270547134e-03,2.668646607715615e+00,
20,1.477499999996341e-02,3.000000000000000e-04,2.090345285669861e-07,-3.188125170108298e-06,2.029005898885667e-04,-3.798565303680265e-03,-9.830165194447107e-04,-2.671160799759490e-04,3.285630634256806e+00,6.323634348265265e-01,1.563104697056228e-03,2.653269041156169e+00,
21,1.574999999995935e-02,3.000000000000000e-04,2.324323290707299e-07,-3.911999503286250e-06,2.167747263606788e-04,-4.487030756008455e-03,-1.358616560410174e-03,-7.194670465465892e-04,3.233994118274624e+00,6.224526690310950e-01,4.291684295358644e-03,2.611555554709368e+00,
22,1.672499999995636e-02,3.000000000000000e-04,2.552681039657404e-07,-4.712408168566359e-06,2.297924633866302e-04,-5.220907716306150e-03,-1.805300295800732e-03,-1.204046612694357e-03,3.155011007919282e+00,6.070393317470322e-01,6.584776201993936e-03,2.548005710293159e+00,
23,1.769999999995338e-02,3.000000000000000e-04,2.773569265255346e-07,-5.587398269561225e-06,2.419577017983302e-04,-5.997700279665121e-03,-2.324244587203999e-03,-1.684002713172036e-03,3.053638523343924e+00,5.878768768049289e-01,8.465508680244871e-03,2.465819773805774e+00,
24,1.867499999995040e-02,3.000000000000000e-04,2.985476765064477e-07,-6.534484744122853e-06,2.532758708643172e-04,-6.814939207677611e-03,-2.916436322696959e-03,-2.121815275270986e-03,2.934326698084947e+00,5.651573051765730e-01,9.911832864638148e-03,2.369252327215651e+00,
25,1.964999999994742e-02,3.000000000000000e-04,3.187252881025875e-07,-7.550755202588235e-06,2.637539505268126e-04,-7.670184194164841e-03,-3.582862747216703e-03,-2.480604547234259e-03,2.801787761200956e+00,5.400686936017967e-01,1.096662083760491e-02,2.261825414976141e+00,
26,2.062499999994443e-02,3.000000000000000e-04,3.378072728511383e-07,-8.632985455827825e-06,2.734008413058046e-04,-8.561026809875864e-03,-4.324344659826637e-03,-2.725422232057195e-03,2.659631409484580e+00,5.128431943015065e-01,1.173635494668068e-02,2.146916535163550e+00,
27,2.159999999994145e-02,3.000000000000000e-04,3.557352725052582e-07,-9.777724966512766e-06,2.822276631182112e-04,-9.485094906039541e-03,-5.141091892237376e-03,-2.824737784803966e-03,2.510924832527915e+00,4.844980827518246e-01,1.227217637994271e-02,2.026575386572256e+00,
28,2.257499999993848e-02,3.000000000000000e-04,3.724707730505386e-07,-1.098136490752185e-05,2.902479403022903e-04,-1.044005701551591e-02,-6.032150809090383e-03,-2.752459602558783e-03,2.358452686634290e+00,4.556547670311758e-01,1.255696615961721e-02,1.902963644540398e+00,
29,2.354999999993549e-02,3.000000000000000e-04,3.879971367787316e-07,-1.224020416127429e-05,2.974778508863601e-04,-1.142362738038460e-02,-6.994969810767056e-03,-2.489986256453320e-03,2.204713413085925e+00,4.264203689883172e-01,1.262805915074594e-02,1.778472384434910e+00,
30,2.452499999993251e-02,3.000000000000000e-04,4.023158728624583e-07,-1.355051495661439e-05,3.039364251045294e-04,-1.243357128380031e-02,-8.025112244939341e-03,-2.027858985101043e-03,2.051809259035701e+00,3.972782839728808e-01,1.253642271720201e-02,1.654720941736251e+00,
31,2.549999999992953e-02,3.000000000000000e-04,4.154420814362494e-07,-1.490858751465006e-05,3.096457502816669e-04,-1.346771087751310e-02,-9.116184309247764e-03,-1.366930337227866e-03,1.901497301002055e+00,3.689023004250602e-01,1.232239095305254e-02,1.532793137076493e+00,
32,2.647499999993088e-02,3.000000000000000e-04,4.274025265087211e-07,-1.631077698400960e-05,3.146309716799993e-04,-1.452393154266452e-02,-1.026005660264876e-02,-5.188326542925892e-04,1.754356616962559e+00,3.406340436837834e-01,1.207798940393479e-02,1.413928932269981e+00,
33,2.744999999993224e-02,3.000000000000000e-04,4.382264000120958e-07,-1.775352088019546e-05,3.189201935074029e-04,-1.560018800981665e-02,-1.144731220458765e-02,4.943789378181532e-04,1.610983261949422e+00,3.134325437243624e-01,1.180955448822890e-02,1.297765667859652e+00,
34,2.842499999993359e-02,3.000000000000000e-04,4.479459755485956e-07,-1.923334157119580e-05,3.225443295579632e-04,-1.669451072365138e-02,-1.266797141502737e-02,1.641102013740063e-03,1.471790364174335e+00,2.870130413213650e-01,1.147744768375136e-02,1.184999675935814e+00,
35,2.939999999993495e-02,3.000000000000000e-04,4.565998430328283e-07,-2.074686959261869e-05,3.255367455018692e-04,-1.780501200266960e-02,-1.391240789399390e-02,2.882054762139562e-03,1.337223546761604e+00,2.615191477615532e-01,1.113373258003814e-02,1.075934846555644e+00,
36,3.037499999993630e-02,3.000000000000000e-04,4.642277573728900e-07,-2.229085193181725e-05,3.279328349568833e-04,-1.892989176314447e-02,-1.517224180848020e-02,4.172777530725084e-03,1.206898917491419e+00,2.364401084454849e-01,1.083530488882684e-02,9.707007342033833e-01,
37,3.134999999993766e-02,3.000000000000000e-04,4.708663907216124e-07,-2.386214606132336e-05,3.297696082511540e-04,-2.006744282958061e-02,-1.644105041201510e-02,5.466453552512150e-03,1.080611560081423e+00,2.126204131105250e-01,1.059331839259114e-02,8.682496788356003e-01,
38,3.232499999993901e-02,3.000000000000000e-04,4.765489675764316e-07,-2.545771278562693e-05,3.310852676534841e-04,-2.121605588306288e-02,-1.771481423624396e-02,6.716478234264467e-03,9.574751605918177e-01,1.888962992790387e-01,1.039014479429867e-02,7.688597313504160e-01,
39,3.329999999994037e-02,3.000000000000000e-04,4.813059287021972e-07,-2.707460001986523e-05,3.319188216527421e-04,-2.237422384839326e-02,-1.899202811609830e-02,7.878559984923733e-03,8.377192281815311e-01,1.664397051527101e-01,1.017884428512900e-02,6.715881427792818e-01,
40,3.427499999994173e-02,3.000000000000000e-04,4.851688609360563e-07,-2.870994423978757e-05,3.323097224452956e-04,-2.354054581666210e-02,-2.027355088565722e-02,8.912038639862313e-03,7.210386365678574e-01,1.439253951651446e-01,9.948460369083062e-03,5.774561289459196e-01,
41,3.524999999994308e-02,3.000000000000000e-04,4.881717414855657e-07,-3.036097384810073e-05,3.322975063615787e-04,-2.471373025699038e-02,-2.156237153107306e-02,9.780897772694516e-03,6.079203793815324e-01,1.222580691724593e-01,9.698754916048796e-03,4.860495272555054e-01,
42,3.622499999994878e-02,3.000000000000000e-04,4.903496246174162e-07,-3.202501577496569e-05,3.319214829114718e-04,-2.589259731629458e-02,-2.286346452520842e-02,1.045526175608177e-02,4.991253196809144e-01,1.017993145864319e-01,9.337103055129664e-03,3.977646041293634e-01,
43,3.719999999995446e-02,3.000000000000000e-04,4.917468207600725e-07,-3.369951495049330e-05,3.312204295096864e-04,-2.707608025220198e-02,-2.418370033168682e-02,1.091446616788236e-02,3.960159869777821e-01,8.232136115636299e-02,8.790609366058619e-03,3.141869149429153e-01,
44,3.817499999996016e-02,3.000000000000000e-04,4.924208176300195e-07,-3.538207128488690e-05,3.302322618021928e-04,-2.826322565857917e-02,-2.553157642113405e-02,1.115167016479936e-02,3.005274657739643e-01,6.430586501372888e-02,8.046841898233750e-03,2.367691942036985e-01,
45,3.914999999996585e-02,3.000000000000000e-04,4.924427700786074e-07,-3.707048371924028e-05,3.289937099605567e-04,-2.945319259132715e-02,-2.691640346340956e-02,1.117875982051902e-02,2.146721083845807e-01,4.787520551235858e-02,7.080799279897507e-03,1.673970061904761e-01,
46,4.012499999997154e-02,3.000000000000000e-04,4.918993781405789e-07,-3.876279681610798e-05,3.275401675495902e-04,-3.064525057319915e-02,-2.834672314490934e-02,1.102847219653785e-02,1.411995754430526e-01,3.401843213167809e-02,5.830153041992928e-03,1.078135437665678e-01,
47,4.109999999997723e-02,3.000000000000000e-04,4.908967352144960e-07,-4.045736344470788e-05,3.259058802595479e-04,-3.183877763216281e-02,-2.982816587470833e-02,1.075056698638796e-02,8.318627423072004e-02,2.310527191457933e-02,4.261591506244836e-03,6.068254681517987e-02,
48,4.207499999998292e-02,3.000000000000000e-04,4.895635997907083e-07,-4.215291699723049e-05,3.241242985277989e-04,-3.303325964352786e-02,-3.136155302550821e-02,1.040013580423930e-02,4.370824719449297e-02,1.599125173063175e-02,2.405735633531329e-03,2.813151423754990e-02,
49,4.304999999998862e-02,3.000000000000000e-04,4.880437553226604e-07,-4.384864928740361e-05,3.222284470120791e-04,-3.422829077351766e-02,-3.294300493724191e-02,1.002008489945749e-02,2.379091290327775e-02,1.246288629695666e-02,6.181442297425416e-04,1.139528832230999e-02,
50,4.402499999999431e-02,3.000000000000000e-04,4.864759609617639e-07,-4.554423103578688e-05,3.202512400812278e-04,-3.542357556585315e-02,-3.456822794153737e-02,9.629177421603047e-03,1.696822120501595e-02,1.023773112808844e-02,1.017383005949730e-05,6.730520834444535e-03,
51,4.500000000000000e-02,6.775721476948160e-16,-3.677317490357173e-08,-4.723922928248965e-05,-4.957670261795491e-05,-3.661830427872878e-02,-3.636613044524294e-02,9.745758166115864e-03,1.975564968892372e-02,1.811643610000011e-02,-2.057705729219115e-04,1.690084999292707e-03,
52,4.402500000000542e-02,-3.000000000000000e-04,-5.569230844142324e-07,-4.554323184634508e-05,-4.153381403894901e-04,-3.542231861474680e-02,-3.481759424778537e-02,1.068515642905350e-02,1.889332086942534e-02,9.786458277163099e-03,-1.026886297734191e-03,9.335573262967958e-03,
53,4.305000000001084e-02,-3.000000000000000e-04,-5.554401436474859e-07,-4.384765459377303e-05,-4.132673765554026e-04,-3.422703114471156e-02,-3.318550939231641e-02,1.108702934040287e-02,1.940999765144243e-02,1.207272422485879e-02,4.972085345543869e-04,7.404353222516154e-03,
54,4.207500000001626e-02,-3.000000000000000e-04,-5.539360163426585e-07,-4.215191870810087e-05,-4.111305443923971e-04,-3.303199782819489e-02,-3.159291361033954e-02,1.147406195503176e-02,2.549393083247290e-03,8.083163436879134e-03,2.445049486068190e-03,7.384827843898866e-03,
55,4.110000000002168e-02,-3.000000000000000e-04,-5.522686722982584e-07,-4.045636407244360e-05,-4.088919412542898e-04,-3.183751423579231e-02,-3.002918239100745e-02,1.182838177806123e-02,-3.437966697123010e-02,1.115985343511090e-03,4.515469295690216e-03,3.662648201902929e-02,
56,4.012500000002710e-02,-3.000000000000000e-04,-5.502906176208640e-07,-3.876179880347034e-05,-4.065173441103274e-04,-3.064398666425159e-02,-2.848621637003473e-02,1.210657575258885e-02,-9.058978692762265e-02,-9.378738129671957e-03,6.370536206650210e-03,8.220443645633790e-02,
57,3.915000000003252e-02,-3.000000000000000e-04,-5.478713485818571e-07,-3.706948955302937e-05,-4.039737929648813e-04,-2.945192965213030e-02,-2.696138454623830e-02,1.225383977418450e-02,-1.629616655282926e-01,-2.270202585504733e-02,7.916089790072259e-03,1.411503610747296e-01,
58,3.817500000003794e-02,-3.000000000000000e-04,-5.449055957048520e-07,-3.538108437599190e-05,-4.012290587895740e-04,-2.826196550128444e-02,-2.545641576120322e-02,1.222102308454430e-02,-2.481156109557536e-01,-3.815123315347858e-02,9.178598834491708e-03,2.107653355088417e-01,
59,3.720000000004337e-02,-3.000000000000000e-04,-5.413102566331305e-07,-3.369853679574788e-05,-3.982511968103538e-04,-2.707482499879555e-02,-2.397485276436617e-02,1.197621757003692e-02,-3.434534636185166e-01,-5.571074078785151e-02,1.021709732193034e-02,2.884673826496648e-01,
60,3.622500000004879e-02,-3.000000000000000e-04,-5.370198583043956e-07,-3.202404925163384e-05,-3.950083186295873e-04,-2.589134938334374e-02,-2.251976823592913e-02,1.150836461171340e-02,-4.466936699599544e-01,-7.468332817348834e-02,1.107978137649490e-02,3.726697473869954e-01,
61,3.525000000005421e-02,-3.000000000000000e-04,-5.319830297826573e-07,-3.036002137407708e-05,-3.914687922942921e-04,-2.471249237440539e-02,-2.109264924949536e-02,1.082492514827844e-02,-5.561083395639540e-01,-9.491985286482979e-02,1.179635963497472e-02,4.617915510989551e-01,
62,3.427500000005529e-02,-3.000000000000000e-04,-5.261607827517523e-07,-2.870901066056040e-05,-3.876016475352576e-04,-2.353932106878012e-02,-1.969352766533753e-02,9.946817170792002e-03,-6.700481118787008e-01,-1.155799292599933e-01,1.239726935825311e-02,5.550222830541642e-01,
63,3.330000000005637e-02,-3.000000000000000e-04,-5.195234936360473e-07,-2.707368929637022e-05,-3.833769626101825e-04,-2.237301570759891e-02,-1.832192393847307e-02,8.903724238156704e-03,-7.877061580690250e-01,-1.366782277844218e-01,1.293719066743376e-02,6.515419016610645e-01,
64,3.232500000005746e-02,-3.000000000000000e-04,-5.120456350367737e-07,-2.545682470679249e-05,-3.787662024909414e-04,-2.121486822733606e-02,-1.697798888303837e-02,7.731036993359322e-03,-9.091123643712113e-01,-1.592412808560251e-01,1.345016138467725e-02,7.503534295632525e-01,
65,3.135000000005854e-02,-3.000000000000000e-04,-5.037037108005036e-07,-2.386128677389760e-05,-3.737424790390063e-04,-2.006627992807036e-02,-1.566333069103243e-02,6.468457650727392e-03,-1.033580811656871e+00,-1.815987211545942e-01,1.396310208074747e-02,8.524396491338840e-01,
66,3.037500000005963e-02,-3.000000000000000e-04,-4.944748351676831e-07,-2.229002193219592e-05,-3.682806639550470e-04,-1.892875820286229e-02,-1.438129006821905e-02,5.159151949456396e-03,-1.161823787501445e+00,-2.052527582995486e-01,1.450405424585288e-02,9.570107649690476e-01,
67,2.940000000006071e-02,-3.000000000000000e-04,-4.843336243049641e-07,-2.074607424177988e-05,-3.623574089462107e-04,-1.780391258298913e-02,-1.313673807742823e-02,3.848626722475858e-03,-1.293875978333615e+00,-2.290255861980734e-01,1.508438939307910e-02,1.065277669363563e+00,
68,2.842500000006180e-02,-3.000000000000000e-04,-4.732512010911975e-07,-1.923258180421460e-05,-3.559510462081719e-04,-1.669345030606439e-02,-1.193554597780959e-02,2.582824106317404e-03,-1.430589076500266e+00,-2.541197518305771e-01,1.568888358518922e-02,1.176887690547128e+00,
69,2.745000000006288e-02,-3.000000000000000e-04,-4.611963744729825e-07,-1.775279990313550e-05,-3.490414649194112e-04,-1.559917134809286e-02,-1.078390055612856e-02,1.405705934800071e-03,-1.571950254903635e+00,-2.799280553970592e-01,1.628475299805882e-02,1.292432643018057e+00,
70,2.647500000006396e-02,-3.000000000000000e-04,-4.481379280325119e-07,-1.631009709407854e-05,-3.416099172331304e-04,-1.452296309613268e-02,-9.687587267189697e-03,3.565203081752899e-04,-1.717779631591472e+00,-3.067310726083448e-01,1.681681059202850e-02,1.411449345985293e+00,
71,2.550000000006505e-02,-3.000000000000000e-04,-4.340495879063535e-07,-1.490795331513507e-05,-3.336388633619378e-04,-1.346679463744987e-02,-8.651375840165221e-03,-5.326904674483601e-04,-1.867221529900700e+00,-3.336292126698073e-01,1.728051072323589e-02,1.533981701218448e+00,
72,2.452500000006397e-02,-3.000000000000000e-04,-4.189089010897030e-07,-1.354992616370046e-05,-3.251118004232932e-04,-1.243271063135212e-02,-7.678598988553560e-03,-1.239025691833984e-03,-2.020311658672998e+00,-3.618329184372953e-01,1.767861996652342e-02,1.658855589323401e+00,
73,2.355000000006288e-02,-3.000000000000000e-04,-4.026957215165667e-07,-1.223966402161468e-05,-3.160131058360690e-04,-1.142282500112183e-02,-6.770884377698612e-03,-1.749728970838856e-03,-2.175865593582638e+00,-3.902107348935085e-01,1.793237972027395e-02,1.786014993030524e+00,
74,2.257500000006180e-02,-3.000000000000000e-04,-3.853996989570035e-07,-1.098087495184468e-05,-3.063279291306504e-04,-1.043931484934955e-02,-5.928100540523536e-03,-2.062712294688088e-03,-2.332353965003244e+00,-4.187494771072236e-01,1.797684302760361e-02,1.913942215333772e+00,
75,2.160000000006071e-02,-3.000000000000000e-04,-3.670239077139830e-07,-9.777285515785166e-06,-2.960421163706765e-04,-9.484414144330959e-03,-5.148619800876152e-03,-2.186264225199276e-03,-2.487769102244186e+00,-4.473405957316000e-01,1.776744311111644e-02,2.040737910249135e+00,
76,2.062500000005963e-02,-3.000000000000000e-04,-3.475877714572510e-07,-8.632598347353769e-06,-2.851420878566899e-04,-8.560407928954320e-03,-4.429770333441369e-03,-2.138025568066373e-03,-2.639348070291911e+00,-4.749613211167369e-01,1.725948452410675e-02,2.164661996531844e+00,
77,1.965000000005854e-02,-3.000000000000000e-04,-3.271305247426882e-07,-7.550421177825898e-06,-2.736147872323900e-04,-7.669627013771317e-03,-3.768418660127055e-03,-1.943431899929002e-03,-2.784307368372602e+00,-5.012287737739684e-01,1.643205902797606e-02,2.283315116091090e+00,
78,1.867500000005746e-02,-3.000000000000000e-04,-3.057111764433916e-07,-6.534201798790967e-06,-2.614476485353671e-04,-6.814442962479374e-03,-3.161549487924555e-03,-1.633684122296527e-03,-2.919772256681221e+00,-5.260984043843232e-01,1.524105725812852e-02,2.393867930875731e+00,
79,1.770000000005638e-02,-3.000000000000000e-04,-2.834115082883840e-07,-5.587165781421806e-06,-2.486286303896940e-04,-5.997263683814750e-03,-2.606649580375553e-03,-1.243678640055857e-03,-3.041805226665038e+00,-5.483927555384229e-01,1.360917068341616e-02,2.493561025777491e+00,
80,1.672500000005529e-02,-3.000000000000000e-04,-2.603432019126320e-07,-4.712223633706520e-06,-2.351460510302005e-04,-5.220528985427354e-03,-2.101917752654018e-03,-8.104119202190004e-04,-3.146016290730365e+00,-5.675537466388045e-01,1.149301832708161e-02,2.578564998049146e+00,
81,1.575000000005421e-02,-3.000000000000000e-04,-2.366508983474927e-07,-3.911862656840787e-06,-2.209882507477378e-04,-4.486707610924790e-03,-1.646367993588449e-03,-3.715584197778038e-04,-3.227500756157784e+00,-5.820282774440104e-01,8.889227207986461e-03,2.645532216600928e+00,
82,1.477500000004879e-02,-3.000000000000000e-04,-2.125115746581844e-07,-3.188031238751999e-06,-2.061435334156376e-04,-3.798294952592053e-03,-1.239855023189422e-03,3.597408753757206e-05,-3.281845395457791e+00,-5.918745848441267e-01,5.779346027476762e-03,2.689995644107171e+00,
83,1.380000000004336e-02,-3.000000000000000e-04,-1.881362796918658e-07,-2.542039585008280e-06,-1.906001142444823e-04,-3.157810427906860e-03,-8.831276999902481e-04,3.781949451287046e-04,-3.303789697985783e+00,-5.955334378814585e-01,2.145256913960281e-03,2.708259658692861e+00,
84,1.282500000003794e-02,-3.000000000000000e-04,-1.637728627181468e-07,-1.974435085718333e-06,-1.743460291956579e-04,-2.567795302002513e-03,-5.778442933546638e-04,6.274541348422723e-04,-3.288362107467711e+00,-5.921661478640899e-01,-1.973318533884938e-03,2.696198848105797e+00,
85,1.185000000003252e-02,-3.000000000000000e-04,-1.397028544593885e-07,-1.484880199281089e-06,-1.573691857789189e-04,-2.030810437293798e-03,-3.263641609350086e-04,7.669412382770701e-04,-3.231083909354248e+00,-5.812127175722591e-01,-6.536950035546663e-03,2.649903443504907e+00,
86,1.087500000002711e-02,-3.000000000000000e-04,-1.162387454018331e-07,-1.072056594866681e-06,-1.396576074931909e-04,-1.549432902539143e-03,-1.309881630670122e-04,7.950584771832204e-04,-3.127657801268382e+00,-5.617132657176623e-01,-1.147386046494880e-02,2.566047146374843e+00,
87,9.900000000021683e-03,-3.000000000000000e-04,-9.372211652034493e-08,-7.335592905127723e-07,-1.211986059768878e-04,-1.126255714359367e-03,7.420505110730972e-06,7.269457166313555e-04,-2.973814329735878e+00,-5.323012206253699e-01,-1.688535754209775e-02,2.441746654171099e+00,
88,8.925000000016260e-03,-3.000000000000000e-04,-7.252337838152277e-08,-4.658028212866493e-07,-1.019818808372350e-04,-7.638772816047790e-04,9.103238722171542e-05,5.912416321272869e-04,-2.767371390504906e+00,-4.953621998768235e-01,-2.214291288617087e-02,2.272440757569449e+00,
89,7.950000000010837e-03,-3.000000000000000e-04,-5.303046674952606e-08,-2.639652553215507e-07,-8.198700767163477e-05,-4.649351143110762e-04,1.259234406043035e-04,4.218674133036084e-04,-2.500027565609837e+00,-4.392540073978440e-01,-2.947714661059098e-02,2.061616663425800e+00,
90,6.975000000005414e-03,-3.000000000000000e-04,-3.567983124255917e-08,-1.218097575871603e-07,-6.123379739595232e-05,-2.319659893334384e-04,1.210846596601225e-04,2.488503949967991e-04,-2.189654557690500e+00,-4.056111366287245e-01,-2.957163219527359e-02,1.785023488348704e+00,
91,5.287157539465519e-03,-2.884525746299021e-16,-1.244213403287115e-11,-1.421964578904399e-09,-3.897418199142508e-09,-4.415483129751330e-06,1.357162471659325e-05,1.019699655768977e-05,-2.079396410779158e-03,2.197500994106621e-02,7.512411511948362e-02,1.521615758162402e-01,
92,5.618250182384966e-03,1.602596125189189e-16,-4.986004369121915e-11,-1.060344732309779e-08,-9.471629399484559e-09,-2.493345239116826e-05,3.072088876536275e-05,3.876822487291870e-05,-5.739528403557473e-03,2.075940957994579e-02,1.950846178952581e-02,4.716475421145653e-02,
93,6.975000000000673e-03,6.775721476948160e-16,-1.875085311713760e-10,-1.209416426868324e-07,-4.582448588251049e-08,-2.308927517212394e-04,7.486676561827375e-05,2.320997331909949e-04,-4.438019438298531e-03,2.114036902475257e-02,-2.701640475186096e-02,5.978125508244408e-02,
94,7.950000000001354e-03,6.775450426405039e-16,-2.975657982486663e-10,-2.629224742109087e-07,-9.167127267207224e-08,-4.638377103939970e-04,7.864858899266398e-05,3.960033409132924e-04,-4.227337728663613e-03,2.114245241184998e-02,-2.346514501573543e-02,5.334864922574585e-02,
95,8.925000000002032e-03,6.775721476948160e-16,-4.204996154647764e-10,-4.646775688133384e-07,-1.631768459677279e-07,-7.628515385679228e-04,5.078673893450911e-05,5.537046854150202e-04,-3.839820694062218e-03,2.100182753409938e-02,-1.860814856097642e-02,4.474550545206971e-02,
96,9.900000000002712e-03,6.775450426405039e-16,-5.615435274091827e-10,-7.323583689001089e-07,-2.693405227228364e-07,-1.125281129887987e-03,-1.589165877997445e-05,6.752902134947881e-04,-3.180614808068097e-03,2.116464841793156e-02,-1.432290807707748e-02,3.759354498688380e-02,
97,1.087500000000339e-02,6.775721476948160e-16,-7.260383591446878e-10,-1.070808132279931e-06,-4.191815244606387e-07,-1.548517927661530e-03,-1.276401426140936e-04,7.269927383873115e-04,-2.445865045201626e-03,2.094055148387486e-02,-1.021176082045461e-02,3.104906945929537e-02,
98,1.185000000000407e-02,6.775450426405039e-16,-9.194836563099282e-10,-1.483604818186340e-06,-6.214292691445164e-07,-2.029956148593559e-03,-2.896331843351579e-04,6.804140529633679e-04,-1.507103452095815e-03,2.082914499507990e-02,-6.410773176036111e-03,2.575461212195393e-02,
99,1.282500000000474e-02,6.775721476948160e-16,-1.148389040881892e-09,-1.973153126192109e-06,-8.842324857558832e-07,-2.567004327308198e-03,-5.058039645737754e-04,5.207656181495518e-04,-4.333269668552603e-04,2.074810966097931e-02,-2.928270492927321e-03,2.197617641761113e-02,
100,1.380000000000542e-02,6.775992527491281e-16,-1.418768567110597e-09,-2.540770008503681e-06,-1.214969561686621e-06,-3.157084638817277e-03,-7.788561373981968e-04,2.500617284248354e-04,7.165274687578604e-04,2.050632619879089e-02,2.131693275857494e-04,1.979439057976048e-02,
101,1.477500000000610e-02,6.775450426405039e-16,-1.736356096275285e-09,-3.186790443636461e-06,-1.620145954526994e-06,-3.797636004842226e-03,-1.110442268708290e-03,-1.145076992947608e-04,1.938769942393392e-03,2.027919042534226e-02,2.985571323763814e-03,1.928796433034066e-02,
102,1.575000000000678e-02,6.775721476948160e-16,-2.107041533697053e-09,-3.910664668325707e-06,-2.105357911327270e-06,-4.486116804760892e-03,-1.501487946957440e-03,-5.450185899557852e-04,3.285010058858354e-03,2.024498653816056e-02,5.347986531598736e-03,2.005105089383422e-02,
103,1.672500000000583e-02,6.775857002219721e-16,-2.535184624286726e-09,-4.711081544195925e-06,-2.675324687087574e-06,-5.220007314100747e-03,-1.952592864168419e-03,-1.007351367320719e-03,4.540674304791770e-03,1.977784108337666e-02,7.332192934512927e-03,2.114746945509311e-02,
104,1.770000000000488e-02,6.775857002219721e-16,-3.024777138431543e-09,-5.586088547914196e-06,-3.333943252300908e-06,-5.996811850087954e-03,-2.464413738842409e-03,-1.464591241079855e-03,5.954953070395064e-03,1.977562542898442e-02,8.955108586780836e-03,2.262270681522482e-02,
105,1.867500000000393e-02,6.775721476948160e-16,-3.579174368563381e-09,-6.533197679649556e-06,-4.084328321956045e-06,-6.814061378189246e-03,-3.037935514603842e-03,-1.879117591977533e-03,7.306655627057686e-03,1.955995151575882e-02,1.020326868065186e-02,2.380273150742041e-02,
106,1.965000000000298e-02,6.775585951676599e-16,-4.200002209392309e-09,-7.549495775621591e-06,-4.928831328116841e-06,-7.669315786023811e-03,-3.674554613915356e-03,-2.213972440925506e-03,8.763050668906175e-03,1.944799694531604e-02,1.111132552993555e-02,2.465794592131621e-02,
107,2.062500000000203e-02,6.775857002219721e-16,-4.887646514423977e-09,-8.631756487349091e-06,-5.869023911449780e-06,-8.560166845611752e-03,-4.375943596597167e-03,-2.434204466949280e-03,1.016726906220390e-02,1.896960765916997e-02,1.175915187596976e-02,2.511158649197879e-02,
108,2.160000000000109e-02,6.775721476948160e-16,-5.641620342699967e-09,-9.776529433608049e-06,-6.905630594659246e-06,-9.484242617624443e-03,-5.143722626792094e-03,-2.508416637404740e-03,1.160237232735335e-02,1.860656276582337e-02,1.218620097741291e-02,2.535887735578908e-02,
109,2.257500000000014e-02,6.775857002219721e-16,-6.461776738148162e-09,-1.098020520269558e-05,-8.038419228494862e-06,-1.043921188533780e-02,-5.978990126709086e-03,-2.410812347580851e-03,1.305879753811913e-02,1.847460558811105e-02,1.238565316217966e-02,2.535643101561418e-02,
110,2.354999999999918e-02,6.775721476948160e-16,-7.346700349604532e-09,-1.223908106118314e-05,-9.266092178204681e-06,-1.142278915798213e-02,-6.881813390597392e-03,-2.123242701691005e-03,1.443575899199014e-02,1.812693315200166e-02,1.239570167131121e-02,2.506468524390695e-02,
111,2.452499999999824e-02,6.775585951676599e-16,-8.293882538732914e-09,-1.354942881900685e-05,-1.058621171292736e-05,-1.243273999497588e-02,-7.850792342086072e-03,-1.636816738234473e-03,1.575737773815554e-02,1.774288158813324e-02,1.225705924004211e-02,2.459439428800561e-02,
112,2.549999999999730e-02,6.775721476948160e-16,-9.301243400038427e-09,-1.490753898591924e-05,-1.199515896438050e-05,-1.346688682248259e-02,-8.882796061923151e-03,-9.529999469285663e-04,1.713580378447089e-02,1.765222761993586e-02,1.200235694849633e-02,2.401026827951552e-02,
113,2.647499999999742e-02,6.775857002219721e-16,-1.036528075003100e-08,-1.630976475561080e-05,-1.348817103949860e-05,-1.452311526159870e-02,-9.972941891049223e-03,-8.398965698577093e-05,1.829415154255771e-02,1.696908020449067e-02,1.171651152948722e-02,2.347045768052669e-02,
114,2.744999999999756e-02,6.775721476948160e-16,-1.148256746605260e-08,-1.775254553009057e-05,-1.505944413205952e-05,-1.559938024687543e-02,-1.111484701314287e-02,9.477155931407327e-04,1.952183928704180e-02,1.676894313025944e-02,1.139236559040527e-02,2.295043381358677e-02,
115,2.842499999999769e-02,6.775721476948160e-16,-1.265027264620830e-08,-1.923240270517899e-05,-1.670228762268613e-05,-1.669371235481566e-02,-1.230112529861855e-02,2.110265548172216e-03,2.059383409028026e-02,1.645833436673796e-02,1.100977086855170e-02,2.240452133555764e-02,
116,2.939999999999783e-02,6.775857002219721e-16,-1.386470330736788e-08,-2.074596681892120e-05,-1.840938732583938e-05,-1.780422395586639e-02,-1.352405853711063e-02,3.364352859519852e-03,2.166919272787764e-02,1.625851708063154e-02,1.062073525449278e-02,2.191975091883586e-02,
117,3.037499999999797e-02,6.775789239583940e-16,-1.512138811814329e-08,-2.228998396678114e-05,-2.017309714898794e-05,-1.892911493149803e-02,-1.477635149572202e-02,4.665722868653591e-03,2.253534590428182e-02,1.560558067419825e-02,1.025963569895297e-02,2.165784257134112e-02,
118,3.134999999999809e-02,6.775789239583940e-16,-1.641661796576487e-08,-2.386131381930721e-05,-2.198574098725532e-05,-2.006667799469073e-02,-1.605184795306535e-02,5.967952343276232e-03,2.351013967705952e-02,1.552111483696949e-02,9.936536896365450e-03,2.141876700155504e-02,
119,3.232499999999824e-02,6.775721476948160e-16,-1.774635893720691e-08,-2.545691512264321e-05,-2.383988813224018e-05,-2.121530364592330e-02,-1.734609731099336e-02,7.224954711940790e-03,2.417739021004388e-02,1.483768168436963e-02,9.641861540080315e-03,2.142643533527853e-02,
120,3.329999999999836e-02,6.775857002219721e-16,-1.910688999237846e-08,-2.707383839277568e-05,-2.572859522289056e-05,-2.237348458679857e-02,-1.865667614842309e-02,8.392979393667913e-03,2.498738667944767e-02,1.488512428475965e-02,9.341682645929078e-03,2.123967617738410e-02,
121,3.427499999999851e-02,6.775653714312380e-16,-2.049433409542467e-08,-2.870921715299467e-05,-2.764557881893278e-05,-2.353981965948057e-02,-1.998321413892077e-02,9.431831574711877e-03,2.548109301215171e-02,1.417839466503693e-02,9.020454851509194e-03,2.128909140471556e-02,
122,3.524999999999864e-02,6.775789239583940e-16,-2.190402331632018e-08,-3.036028153066358e-05,-2.958533727724117e-05,-2.471301708940933e-02,-2.132713845754273e-02,1.030578203620355e-02,2.590066316261929e-02,1.367735276273517e-02,8.672844514728412e-03,2.121985497213716e-02,
123,3.622499999999878e-02,6.775450426405039e-16,-2.333363325991492e-08,-3.202435863760467e-05,-3.154317743968036e-05,-2.589189680719323e-02,-2.269118627325006e-02,1.098500322462775e-02,2.619769999271383e-02,1.356120894523324e-02,8.229789207651703e-03,2.075087052637982e-02,
124,3.719999999999891e-02,6.775924764855501e-16,-2.478040748140801e-08,-3.369889165426087e-05,-3.351519617681445e-05,-2.707539188696249e-02,-2.407878701960154e-02,1.144862586820242e-02,2.625829622084331e-02,1.330615136761441e-02,7.652385594267640e-03,2.004978995980864e-02,
125,3.817499999999904e-02,6.775857002219721e-16,-2.624127443839058e-08,-3.538147994237690e-05,-3.549825195618277e-05,-2.826254878488140e-02,-2.549345381331554e-02,1.168941970451358e-02,2.618082411632107e-02,1.307657250978287e-02,6.926452126329918e-03,1.906893721214740e-02,
126,3.914999999999919e-02,6.775789239583940e-16,-2.771336906905210e-08,-3.706992095621452e-05,-3.748992485276534e-05,-2.945252644056137e-02,-2.693830901329084e-02,1.171881804505416e-02,2.583196589072908e-02,1.258546770038334e-02,6.021535715060203e-03,1.790266136019490e-02,
127,4.012499999999932e-02,6.775755358266050e-16,-2.919486195677560e-08,-3.876225921500689e-05,-3.948848965607175e-05,-3.064459425086487e-02,-2.841585418793719e-02,1.156920679796129e-02,2.527495827103643e-02,1.231509996690982e-02,4.891330392299286e-03,1.623756075553106e-02,
128,4.109999999999946e-02,6.775467367063984e-16,-3.068548696141186e-08,-4.045684578037256e-05,-4.149293478949978e-05,-3.183813009890660e-02,-2.992802089542464e-02,1.129024314361389e-02,2.437549338010838e-02,1.210510669379886e-02,3.498726645270986e-03,1.412539351610703e-02,
129,4.207499999999958e-02,6.775823120901830e-16,-3.218585136172409e-08,-4.215241337536784e-05,-4.350302484102086e-05,-3.303261962633761e-02,-3.147657862033752e-02,1.093714122095281e-02,2.305786529917849e-02,1.201480114294728e-02,1.912168903003336e-03,1.168652324744577e-02,
130,4.304999999999973e-02,6.775780769254468e-16,-3.369868811041398e-08,-4.384815240289468e-05,-4.551931787832096e-05,-3.422765676592592e-02,-3.306344952880684e-02,1.055336629863456e-02,2.150455757023372e-02,1.223526837275367e-02,3.404788294374486e-04,9.294268425201665e-03,
131,4.402499999999987e-02,6.775992527491281e-16,-3.522451431996866e-08,-4.554373318798492e-05,-4.754332402017014e-05,-3.542294584596677e-02,-3.469220644615414e-02,1.015679470848024e-02,1.846107672500593e-02,1.019776199451609e-02,-5.214159863138557e-04,8.328857596229214e-03,
