"PointID","x","y","Displacement_x","Displacement_y","Sxx","Syy","Sxy","Von_Mises_Stress"
0,0.000000000000000e+00,-5.000000000000000e-04,0.000000000000000e+00,0.000000000000000e+00,-7.479320124887570e+02,-4.989204286065337e+02,-1.192857405850530e+02,3.448523169926971e+02,
1,1.600000000000000e-02,-5.000000000000000e-04,-5.080202361984725e-04,-3.079235380638644e-03,-1.478258666902663e+00,-7.909182590963019e-01,-2.331883112705616e-01,8.306286717037162e-01,
2,1.600000000000000e-02,5.000000000000000e-04,-2.197193421169833e-04,-3.121697169732774e-03,5.297368506596596e-01,6.861687073668707e-01,-3.384771352708676e-01,6.947935018388975e-01,
3,0.000000000000000e+00,5.000000000000000e-04,0.000000000000000e+00,0.000000000000000e+00,7.271653173695008e+02,4.846258501764244e+02,-1.240763185297232e+02,3.469944155542833e+02,
4,1.333333333330364e-04,-5.000000000000000e-04,-2.177369601437422e-06,-2.120701347902171e-06,-4.186528312848717e+02,1.312542997852553e+00,-3.153205498038783e+01,4.246739897398633e+02,
5,2.666666666660728e-04,-5.000000000000000e-04,-4.451778537958213e-06,-3.247346375091261e-06,-4.619046110348369e+02,-4.733074756022870e+01,7.027386699538910e+00,4.148120356638203e+02,
6,3.999999999991092e-04,-5.000000000000000e-04,-6.748353811614059e-06,-4.837189089539101e-06,-4.664129507182988e+02,-4.462959342347465e+01,6.926153193015482e+00,4.220107663118392e+02,
7,5.333333333321455e-04,-5.000000000000000e-04,-9.101880511609884e-06,-6.983239378292846e-06,-4.768312446184830e+02,-5.225774104281400e+01,8.102612422649401e+00,4.248826535065949e+02,
8,6.666666666651819e-04,-5.000000000000000e-04,-1.147415272653434e-05,-9.744204573632914e-06,-4.779462962299795e+02,-5.433626472231813e+01,9.287316618320002e+00,4.240170701679327e+02,
9,7.999999999982184e-04,-5.000000000000000e-04,-1.385162393894800e-05,-1.312504776606290e-05,-4.757382244661300e+02,-5.502637200193460e+01,1.087433263828354e+01,4.212736251477976e+02,
10,9.333333333312547e-04,-5.000000000000000e-04,-1.622907884382804e-05,-1.712235895101718e-05,-4.719433946165809e+02,-5.494199783064399e+01,1.259377215892835e+01,4.177613880077794e+02,
11,1.066666666664291e-03,-5.000000000000000e-04,-1.860643055243656e-05,-2.173000167918906e-05,-4.676207801202827e+02,-5.462640554676068e+01,1.434393084015460e+01,4.139895491883378e+02,
12,1.199999999997328e-03,-5.000000000000000e-04,-2.098545606301415e-05,-2.694182791514918e-05,-4.631403256424869e+02,-5.424658164802267e+01,1.606886896173756e+01,4.101547611288310e+02,
13,1.333333333330364e-03,-5.000000000000000e-04,-2.336855737112399e-05,-3.275196688376898e-05,-4.586311477918348e+02,-5.386617724656427e+01,1.774857260914447e+01,4.063185064689548e+02,
14,1.466666666663400e-03,-5.000000000000000e-04,-2.575824080601335e-05,-3.915477690659798e-05,-4.541233768415109e+02,-5.349997791516996e+01,1.937656060169982e+01,4.024933691010319e+02,
15,1.599999999996437e-03,-5.000000000000000e-04,-2.815695717245949e-05,-4.614473204524386e-05,-4.496188926789004e+02,-5.314919750498375e+01,2.095168595343434e+01,3.986779549567090e+02,
16,1.733333333329473e-03,-5.000000000000000e-04,-3.056706476003195e-05,-5.371635163814938e-05,-4.451138296403054e+02,-5.281168865155946e+01,2.247434116255734e+01,3.948687805678210e+02,
17,1.866666666662509e-03,-5.000000000000000e-04,-3.299083048328006e-05,-6.186416525952788e-05,-4.406051418442124e+02,-5.248531990972413e+01,2.394523707507891e+01,3.910632860456039e+02,
18,1.999999999995546e-03,-5.000000000000000e-04,-3.543043768035859e-05,-7.058269877233754e-05,-4.360914205641666e+02,-5.216849632888442e+01,2.536505608934044e+01,3.872600625355417e+02,
19,2.133333333328582e-03,-5.000000000000000e-04,-3.788799256391760e-05,-7.986647009245250e-05,-4.315724283101088e+02,-5.186005566451716e+01,2.673440690798244e+01,3.834584723161439e+02,
20,2.266666666661619e-03,-5.000000000000000e-04,-4.036552828258286e-05,-8.970998881651997e-05,-4.270485598842010e+02,-5.155908348759707e+01,2.805384682898427e+01,3.796582939594659e+02,
21,2.399999999994655e-03,-5.000000000000000e-04,-4.286500728956511e-05,-1.001077570805770e-04,-4.225204948308447e+02,-5.126479104934519e+01,2.932390807985158e+01,3.758595002532181e+02,
22,2.533333333327691e-03,-5.000000000000000e-04,-4.538832275999537e-05,-1.110542706467734e-04,-4.179890132424581e+02,-5.097645111948030e+01,3.054511475925988e+01,3.720621411789945e+02,
23,2.666666666660728e-03,-5.000000000000000e-04,-4.793729954282774e-05,-1.225440199023773e-04,-4.134549105937510e+02,-5.069336928502518e+01,3.171799171692888e+01,3.682662893164443e+02,
24,2.799999999993764e-03,-5.000000000000000e-04,-5.051369491106931e-05,-1.345714907131505e-04,-4.089189634091948e+02,-5.041487282216145e+01,3.284306853299018e+01,3.644720175408348e+02,
25,2.933333333326801e-03,-5.000000000000000e-04,-5.311919923872266e-05,-1.471311651519174e-04,-4.043819183213283e+02,-5.014030727078114e+01,3.392088095474897e+01,3.606793917853807e+02,
26,3.066666666659837e-03,-5.000000000000000e-04,-5.575543666083291e-05,-1.602175221370990e-04,-3.998444906798118e+02,-4.986903593968064e+01,3.495197113419515e+01,3.568884700648425e+02,
27,3.199999999992873e-03,-5.000000000000000e-04,-5.842396573818663e-05,-1.738250380102742e-04,-3.953073663618555e+02,-4.960044028834000e+01,3.593688735106227e+01,3.530993036316142e+02,
28,3.333333333325910e-03,-5.000000000000000e-04,-6.112628013266159e-05,-1.879481870726900e-04,-3.907712041621037e+02,-4.933392040517268e+01,3.687618354331924e+01,3.493119385165547e+02,
29,3.466666666658946e-03,-5.000000000000000e-04,-6.386380929308603e-05,-2.025814420930117e-04,-3.862366378371545e+02,-4.906889533558578e+01,3.777041878649817e+01,3.455264168263172e+02,
30,3.599999999991982e-03,-5.000000000000000e-04,-6.663791914954184e-05,-2.177192747933037e-04,-3.817042776116695e+02,-4.880480322776803e+01,3.862015677680907e+01,3.417427776602442e+02,
31,3.733333333325019e-03,-5.000000000000000e-04,-6.944991281390218e-05,-2.333561563169401e-04,-3.771747112177949e+02,-4.854110133302379e+01,3.942596533793824e+01,3.379610576933520e+02,
32,3.866666666658056e-03,-5.000000000000000e-04,-7.230103128479460e-05,-2.494865576802498e-04,-3.726485045979658e+02,-4.827726590127300e+01,4.018841595223492e+01,3.341812915179817e+02,
33,3.999999999991091e-03,-5.000000000000000e-04,-7.519245415569971e-05,-2.661049502087190e-04,-3.681262023964347e+02,-4.801279201197558e+01,4.090808331881978e+01,3.304035118324973e+02,
34,4.133333333324164e-03,-5.000000000000000e-04,-7.812530032529758e-05,-2.832058059580788e-04,-3.636083283316361e+02,-4.774719336746244e+01,4.158554492923517e+01,3.266277495392908e+02,
35,4.266666666657233e-03,-5.000000000000000e-04,-8.110062870949228e-05,-3.007835981204082e-04,-3.590953855032074e+02,-4.748000206159048e+01,4.222138066492541e+01,3.228540337961972e+02,
36,4.399999999990304e-03,-5.000000000000000e-04,-8.411943895471304e-05,-3.188328014153830e-04,-3.545878566751136e+02,-4.721076833836845e+01,4.281617240862222e+01,3.190823920451812e+02,
37,4.533333333323375e-03,-5.000000000000000e-04,-8.718267215221410e-05,-3.373478924667135e-04,-3.500862045499309e+02,-4.693906034341357e+01,4.337050367158567e+01,3.153128500322737e+02,
38,4.666666666656447e-03,-5.000000000000000e-04,-9.029121155314904e-05,-3.563233501639090e-04,-3.455908720418032e+02,-4.666446386942119e+01,4.388495923495887e+01,3.115454318250511e+02,
39,4.799999999989517e-03,-5.000000000000000e-04,-9.344588328423563e-05,-3.757536560095083e-04,-3.411022825566895e+02,-4.638658210132124e+01,4.436012480447168e+01,3.077801598309605e+02,
40,4.933333333322587e-03,-5.000000000000000e-04,-9.664745706384147e-05,-3.956332944519262e-04,-3.366208402733429e+02,-4.610503535563635e+01,4.479658667917523e+01,3.040170548166703e+02,
41,5.066666666655659e-03,-5.000000000000000e-04,-9.989664691831467e-05,-4.159567532040934e-04,-3.321469304315505e+02,-4.581946082031369e+01,4.519493143193550e+01,3.002561359281823e+02,
42,5.199999999988730e-03,-5.000000000000000e-04,-1.031941118984209e-04,-4.367185235480597e-04,-3.276809196238583e+02,-4.552951229200775e+01,4.555574560334914e+01,2.964974207126465e+02,
43,5.333333333321801e-03,-5.000000000000000e-04,-1.065404567957168e-04,-4.579131006257622e-04,-3.232231560869141e+02,-4.523485990965791e+01,4.587961540838891e+01,2.927409251396541e+02,
44,5.466666666654871e-03,-5.000000000000000e-04,-1.099362328587213e-04,-4.795349837161248e-04,-3.187739699991612e+02,-4.493518988843299e+01,4.616712645394276e+01,2.889866636241007e+02,
45,5.599999999987943e-03,-5.000000000000000e-04,-1.133819385087434e-04,-5.015786764986967e-04,-3.143336737802682e+02,-4.463020425429609e+01,4.641886347171422e+01,2.852346490494617e+02,
46,5.733333333321013e-03,-5.000000000000000e-04,-1.168780200552271e-04,-5.240386873040052e-04,-3.099025623845686e+02,-4.431962057018046e+01,4.663541005873250e+01,2.814848927885282e+02,
47,5.866666666654085e-03,-5.000000000000000e-04,-1.204248724104677e-04,-5.469095293508231e-04,-3.054809136048519e+02,-4.400317166966902e+01,4.681734843306853e+01,2.777374047274430e+02,
48,5.999999999987155e-03,-5.000000000000000e-04,-1.240228398036011e-04,-5.701857209705377e-04,-3.010689883724090e+02,-4.368060538665208e+01,4.696525919937650e+01,2.739921932878401e+02,
49,6.133333333320226e-03,-5.000000000000000e-04,-1.276722164937272e-04,-5.938617858188052e-04,-2.966670310560494e+02,-4.335168428271783e+01,4.707972112636520e+01,2.702492654499517e+02,
50,6.266666666653297e-03,-5.000000000000000e-04,-1.313732474820376e-04,-6.179322530746951e-04,-2.922752697610635e+02,-4.301618537663282e+01,4.716131093576483e+01,2.665086267738519e+02,
51,6.399999999986368e-03,-5.000000000000000e-04,-1.351261292228814e-04,-6.423916576275010e-04,-2.878939166327335e+02,-4.267389987412457e+01,4.721060310017347e+01,2.627702814235676e+02,
52,6.533333333319439e-03,-5.000000000000000e-04,-1.389310103336183e-04,-6.672345402514178e-04,-2.835231681507821e+02,-4.232463289578264e+01,4.722816965489115e+01,2.590342321874890e+02,
53,6.666666666652510e-03,-5.000000000000000e-04,-1.427879923031895e-04,-6.924554477682638e-04,-2.791632054378805e+02,-4.196820321277946e+01,4.721458001670794e+01,2.553004805032340e+02,
54,6.799999999985581e-03,-5.000000000000000e-04,-1.466971301993003e-04,-7.180489331984604e-04,-2.748141945448085e+02,-4.160444296784516e+01,4.717040081669592e+01,2.515690264786584e+02,
55,6.933333333318652e-03,-5.000000000000000e-04,-1.506584333741392e-04,-7.440095559004265e-04,-2.704762867568487e+02,-4.123319741544186e+01,4.709619573920918e+01,2.478398689138128e+02,
56,7.066666666651722e-03,-5.000000000000000e-04,-1.546718661685226e-04,-7.703318816986047e-04,-2.661496188884191e+02,-4.085432465259709e+01,4.699252537309371e+01,2.441130053245198e+02,
57,7.199999999984794e-03,-5.000000000000000e-04,-1.587373486144223e-04,-7.970104830002969e-04,-2.618343135733651e+02,-4.046769535057375e+01,4.685994707272581e+01,2.403884319638316e+02,
58,7.333333333317865e-03,-5.000000000000000e-04,-1.628547571357847e-04,-8.240399389014895e-04,-2.575304795613652e+02,-4.007319249263945e+01,4.669901482658489e+01,2.366661438448360e+02,
59,7.466666666650935e-03,-5.000000000000000e-04,-1.670239252475631e-04,-8.514148352818754e-04,-2.532382120071937e+02,-3.967071111059441e+01,4.651027913695033e+01,2.329461347625392e+02,
60,7.599999999984006e-03,-5.000000000000000e-04,-1.712446442529208e-04,-8.791297648892400e-04,-2.489575927616912e+02,-3.926015802459119e+01,4.629428690743767e+01,2.292283973167220e+02,
61,7.733333333317077e-03,-5.000000000000000e-04,-1.755166639385392e-04,-9.071793274134096e-04,-2.446886906563533e+02,-3.884145158165666e+01,4.605158133951279e+01,2.255129229338185e+02,
62,7.866666666650150e-03,-5.000000000000000e-04,-1.798396932679618e-04,-9.355581295499419e-04,-2.404315617907683e+02,-3.841452140115929e+01,4.578270183830551e+01,2.217997018894247e+02,
63,7.999999999983218e-03,-5.000000000000000e-04,-1.842134010729434e-04,-9.642607850537507e-04,-2.361862498160277e+02,-3.797930811865035e+01,4.548818392478634e+01,2.180887233309607e+02,
64,8.133333333316652e-03,-5.000000000000000e-04,-1.886374167427768e-04,-9.932819147829154e-04,-2.319527862115679e+02,-3.753576313121987e+01,4.516855915946093e+01,2.143799752999133e+02,
65,8.266666666650083e-03,-5.000000000000000e-04,-1.931113309114572e-04,-1.022616146732475e-03,-2.277311905668736e+02,-3.708384834897092e+01,4.482435506970563e+01,2.106734447537474e+02,
66,8.399999999983516e-03,-5.000000000000000e-04,-1.976346961428186e-04,-1.052258116059175e-03,-2.235214708559885e+02,-3.662353594630154e+01,4.445609508953574e+01,2.069691175899075e+02,
67,8.533333333316948e-03,-5.000000000000000e-04,-2.022070276134443e-04,-1.082202465096552e-03,-2.193236237092318e+02,-3.615480811454106e+01,4.406429850165848e+01,2.032669786663217e+02,
68,8.666666666650381e-03,-5.000000000000000e-04,-2.068278037934271e-04,-1.112443843360947e-03,-2.151376346865415e+02,-3.567765682151727e+01,4.364948039256666e+01,1.995670118268028e+02,
69,8.799999999983810e-03,-5.000000000000000e-04,-2.114964671248913e-04,-1.142976907548531e-03,-2.109634785411072e+02,-3.519208356737414e+01,4.321215160961311e+01,1.958691999216335e+02,
70,8.933333333317245e-03,-5.000000000000000e-04,-2.162124246983099e-04,-1.173796321523528e-03,-2.068011194883417e+02,-3.469809914993957e+01,4.275281872805577e+01,1.921735248320549e+02,
71,9.066666666650678e-03,-5.000000000000000e-04,-2.209750489265548e-04,-1.204896756297818e-03,-2.026505114621024e+02,-3.419572342576957e+01,4.227198402513960e+01,1.884799674927085e+02,
72,9.199999999984110e-03,-5.000000000000000e-04,-2.257836782166890e-04,-1.236272890002086e-03,-1.985115983812380e+02,-3.368498508161366e+01,4.177014545757021e+01,1.847885079165103e+02,
73,9.333333333317543e-03,-5.000000000000000e-04,-2.306376176395024e-04,-1.267919407848704e-03,-1.943843144000066e+02,-3.316592140191674e+01,4.124779664887023e+01,1.810991252171935e+02,
74,9.466666666650974e-03,-5.000000000000000e-04,-2.355361395967466e-04,-1.299831002086506e-03,-1.902685841609163e+02,-3.263857804117441e+01,4.070542688123912e+01,1.774117976337692e+02,
75,9.599999999984407e-03,-5.000000000000000e-04,-2.404784844861135e-04,-1.332002371947638e-03,-1.861643230492590e+02,-3.210300880324732e+01,4.014352109335412e+01,1.737265025558813e+02,
76,9.733333333317837e-03,-5.000000000000000e-04,-2.454638613639173e-04,-1.364428223586659e-03,-1.820714374364079e+02,-3.155927541728157e+01,3.956255988494335e+01,1.700432165488252e+02,
77,9.866666666651270e-03,-5.000000000000000e-04,-2.504914486055123e-04,-1.397103270012062e-03,-1.779898249248316e+02,-3.100744731934130e+01,3.896301952448562e+01,1.663619153785647e+02,
78,9.999999999984703e-03,-5.000000000000000e-04,-2.555603945634406e-04,-1.430022231010356e-03,-1.739193745895354e+02,-3.044760144023192e+01,3.834537196725154e+01,1.626825740386250e+02,
79,1.013333333331814e-02,-5.000000000000000e-04,-2.606698182233253e-04,-1.463179833062936e-03,-1.698599672138690e+02,-2.987982198764585e+01,3.771008487324314e+01,1.590051667781375e+02,
80,1.026666666665157e-02,-5.000000000000000e-04,-2.658188098575086e-04,-1.496570809255852e-03,-1.658114755308783e+02,-2.930420024337739e+01,3.705762163201432e+01,1.553296671293147e+02,
81,1.039999999998500e-02,-5.000000000000000e-04,-2.710064316764931e-04,-1.530189899182677e-03,-1.617737644446705e+02,-2.872083435017570e+01,3.638844139694534e+01,1.516560479371865e+02,
82,1.053333333331843e-02,-5.000000000000000e-04,-2.762317184781420e-04,-1.564031848840623e-03,-1.577466912678875e+02,-2.812982911212906e+01,3.570299911619164e+01,1.479842813905179e+02,
83,1.066666666665187e-02,-5.000000000000000e-04,-2.814936782947055e-04,-1.598091410520083e-03,-1.537301059426977e+02,-2.753129579138141e+01,3.500174557461392e+01,1.443143390543295e+02,
84,1.079999999998530e-02,-5.000000000000000e-04,-2.867912930377067e-04,-1.632363342687725e-03,-1.497238512667290e+02,-2.692535191327513e+01,3.428512743751890e+01,1.406461919039682e+02,
85,1.093333333331873e-02,-5.000000000000000e-04,-2.921235191406670e-04,-1.666842409863380e-03,-1.457277631106683e+02,-2.631212106854062e+01,3.355358729963522e+01,1.369798103628069e+02,
86,1.106666666665216e-02,-5.000000000000000e-04,-2.974892881997547e-04,-1.701523382490777e-03,-1.417416706333642e+02,-2.569173272100450e+01,3.280756373833856e+01,1.333151643409073e+02,
87,1.119999999998559e-02,-5.000000000000000e-04,-3.028875076123411e-04,-1.736401036802378e-03,-1.377653964985475e+02,-2.506432201893212e+01,3.204749136867805e+01,1.296522232781289e+02,
88,1.133333333331903e-02,-5.000000000000000e-04,-3.083170612135384e-04,-1.771470154678407e-03,-1.337987570842658e+02,-2.443002960849820e+01,3.127380090646832e+01,1.259909561921743e+02,
89,1.146666666665246e-02,-5.000000000000000e-04,-3.137768099107278e-04,-1.806725523500261e-03,-1.298415626895915e+02,-2.378900144884960e+01,3.048691923170879e+01,1.223313317293826e+02,
90,1.159999999998589e-02,-5.000000000000000e-04,-3.192655923161638e-04,-1.842161935998447e-03,-1.258936177455271e+02,-2.314138863393200e+01,2.968726945808488e+01,1.186733182265900e+02,
91,1.173333333331932e-02,-5.000000000000000e-04,-3.247822253776256e-04,-1.877774190095194e-03,-1.219547210168158e+02,-2.248734721219966e+01,2.887527100447168e+01,1.150168837776175e+02,
92,1.186666666665276e-02,-5.000000000000000e-04,-3.303255050072726e-04,-1.913557088741884e-03,-1.180246658124119e+02,-2.182703801835031e+01,2.805133967517353e+01,1.113619963160353e+02,
93,1.199999999998619e-02,-5.000000000000000e-04,-3.358942067086823e-04,-1.949505439751459e-03,-1.141032401937806e+02,-2.116062650201291e+01,2.721588773965743e+01,1.077086237108603e+02,
94,1.213333333331998e-02,-5.000000000000000e-04,-3.414870862022489e-04,-1.985614055626085e-03,-1.101902271936462e+02,-2.048828256789144e+01,2.636932402403466e+01,1.040567338886826e+02,
95,1.226666666665377e-02,-5.000000000000000e-04,-3.471028800489526e-04,-2.021877753379744e-03,-1.062854050460121e+02,-1.981018042386148e+01,2.551205400360883e+01,1.004062949788688e+02,
96,1.239999999998757e-02,-5.000000000000000e-04,-3.527403062728031e-04,-2.058291354357011e-03,-1.023885474279140e+02,-1.912649843466903e+01,2.464447990381734e+01,9.675727549632721e+01,
97,1.253333333332136e-02,-5.000000000000000e-04,-3.583980649820095e-04,-2.094849684047368e-03,-9.849942370438069e+01,-1.843741897864910e+01,2.376700079901248e+01,9.310964455213060e+01,
98,1.266666666665516e-02,-5.000000000000000e-04,-3.640748389890692e-04,-2.131547571896156e-03,-9.461779914445171e+01,-1.774312828687913e+01,2.288001270158396e+01,8.946337208242650e+01,
99,1.279999999998895e-02,-5.000000000000000e-04,-3.697692944298034e-04,-2.168379851112779e-03,-9.074343504964887e+01,-1.704381623961227e+01,2.198390860798283e+01,8.581842904342436e+01,
100,1.293333333332274e-02,-5.000000000000000e-04,-3.754800813809104e-04,-2.205341358477401e-03,-8.687608866231014e+01,-1.633967606092900e+01,2.107907845851243e+01,8.217478747957168e+01,
101,1.306666666665654e-02,-5.000000000000000e-04,-3.812058344748627e-04,-2.242426934147598e-03,-8.301551255074807e+01,-1.563090376208968e+01,2.016590892021023e+01,7.853242026012821e+01,
102,1.319999999999033e-02,-5.000000000000000e-04,-3.869451735090709e-04,-2.279631421466484e-03,-7.916145307006337e+01,-1.491769717681830e+01,1.924478284864811e+01,7.489130015453958e+01,
103,1.333333333332413e-02,-5.000000000000000e-04,-3.926967040434281e-04,-2.316949666773194e-03,-7.531364721500789e+01,-1.420025430247308e+01,1.831607824878180e+01,7.125139776133415e+01,
104,1.346666666665792e-02,-5.000000000000000e-04,-3.984590179752959e-04,-2.354376519213567e-03,-7.147181690159225e+01,-1.347877056377627e+01,1.738016650755503e+01,6.761267761937418e+01,
105,1.359999999999171e-02,-5.000000000000000e-04,-4.042306940741604e-04,-2.391906830542119e-03,-6.763565983582839e+01,-1.275343479188864e+01,1.643740976886899e+01,6.397509191406048e+01,
106,1.373333333332551e-02,-5.000000000000000e-04,-4.100102984499314e-04,-2.429535454891681e-03,-6.380483656338562e+01,-1.202442398239470e+01,1.548815766307105e+01,6.033857172855709e+01,
107,1.386666666665930e-02,-5.000000000000000e-04,-4.157963849227156e-04,-2.467257248459865e-03,-5.997895555211431e+01,-1.129189820073277e+01,1.453274453609617e+01,5.670301763171382e+01,
108,1.399999999999309e-02,-5.000000000000000e-04,-4.215874952671373e-04,-2.505067069015720e-03,-5.615756339381772e+01,-1.055599966860095e+01,1.357149032151549e+01,5.306829573646549e+01,
109,1.413333333332689e-02,-5.000000000000000e-04,-4.273821593407041e-04,-2.542959775061463e-03,-5.234015824479681e+01,-9.816865443485138e+00,1.260471199937648e+01,4.943425420712833e+01,
110,1.426666666666068e-02,-5.000000000000000e-04,-4.331788952124632e-04,-2.580930224400490e-03,-4.852626411624456e+01,-9.074671736621536e+00,1.163275885243084e+01,4.580079099058401e+01,
111,1.439999999999447e-02,-5.000000000000000e-04,-4.389762096468866e-04,-2.618973271801744e-03,-4.471563401607563e+01,-8.329739890360802e+00,1.065609285855369e+01,4.216802759636980e+01,
112,1.453333333332827e-02,-5.000000000000000e-04,-4.447725997576977e-04,-2.657083765527503e-03,-4.090867520503457e+01,-7.582734986512079e+00,9.675442089214904e+00,3.853667097629919e+01,
113,1.466666666666206e-02,-5.000000000000000e-04,-4.505665573469672e-04,-2.695256542953555e-03,-3.710719415303689e+01,-6.834969556352107e+00,8.692040393905900e+00,3.490865002931643e+01,
114,1.479999999999586e-02,-5.000000000000000e-04,-4.563565783063201e-04,-2.733486426908154e-03,-3.331529985704624e+01,-6.088606544661157e+00,7.707907143897922e+00,3.128801941450569e+01,
115,1.493333333332965e-02,-5.000000000000000e-04,-4.621411790716181e-04,-2.771768227202123e-03,-2.953992029723248e+01,-5.346322793529921e+00,6.725856405957953e+00,2.768174015024029e+01,
116,1.506666666666344e-02,-5.000000000000000e-04,-4.679189192208368e-04,-2.810096757377606e-03,-2.578738622278782e+01,-4.607830758950120e+00,5.748579512832682e+00,2.409892601978802e+01,
117,1.519999999999724e-02,-5.000000000000000e-04,-4.736884092022265e-04,-2.848466879149302e-03,-2.205312707086980e+01,-3.862215898139114e+00,4.774526500713131e+00,2.054491816771792e+01,
118,1.533333333333103e-02,-5.000000000000000e-04,-4.794482559580594e-04,-2.886873581988691e-03,-1.828195544566029e+01,-3.061130133252714e+00,3.790225237695957e+00,1.700402165961620e+01,
119,1.546666666666482e-02,-5.000000000000000e-04,-4.851967607099988e-04,-2.925312001367784e-03,-1.434028408255544e+01,-2.118478088612209e+00,2.755966101987309e+00,1.340723455358334e+01,
120,1.559999999999862e-02,-5.000000000000000e-04,-4.909312952559934e-04,-2.963776975811691e-03,-1.007847050510874e+01,-1.011181872634477e+00,1.631599994055881e+00,9.636607147072541e+00,
121,1.573333333333242e-02,-5.000000000000000e-04,-4.966477470006237e-04,-3.002261334128098e-03,-5.783450251497150e+00,-1.455519266681453e-01,4.974047086290203e-01,5.724992864430050e+00,
122,1.586666666666621e-02,-5.000000000000000e-04,-5.023425292824105e-04,-3.040752819125137e-03,-2.790994266143599e+00,-5.263902387304114e-01,-2.100689565547217e-01,2.303247113752231e+00,
123,1.600000000000000e-02,-4.000000000004066e-04,-4.791626143317981e-04,-3.083490170908746e-03,-2.911997540154352e+00,-2.014705731902819e+00,-9.746245093164747e-01,2.145857480308704e+00,
124,1.600000000000000e-02,-3.000000000008132e-04,-4.503191006490787e-04,-3.087748895857787e-03,-5.413580845645150e+00,-5.557790830981238e+00,-2.835880515197235e+00,5.673594073052106e+00,
125,1.600000000000000e-02,-2.000000000010842e-04,-4.214893223343079e-04,-3.092024072290491e-03,-1.090457285414240e+01,-1.399242209439462e+01,-5.508833098122193e+00,1.144219303028892e+01,
126,1.600000000000000e-02,-1.000000000012198e-04,-3.926618647827111e-04,-3.096334982687115e-03,-1.875282974368040e+01,-2.696916386072054e+01,-9.217708056320088e+00,2.018347625086002e+01,
127,1.600000000000000e-02,-1.355361135824129e-15,-3.638120359510936e-04,-3.100703483623603e-03,8.125183551868750e+00,2.066976384147547e+01,-1.482472981530762e+01,3.219405148517149e+01,
128,1.600000000000000e-02,9.999999999878032e-05,-3.350367922304632e-04,-3.104817480866721e-03,9.941658383098739e+00,3.640193327811161e+01,-4.265755318757785e+00,2.780166939731659e+01,
129,1.600000000000000e-02,1.999999999989157e-04,-3.062115962407363e-04,-3.108992098525718e-03,7.232525002844644e+00,1.943082602436730e+01,-1.442680757082683e+00,1.253490561907457e+01,
130,1.600000000000000e-02,2.999999999991868e-04,-2.773920421617311e-04,-3.113207983667266e-03,2.433827574190658e+00,7.571805028695623e+00,-1.325864393966662e+00,5.781909536455552e+00,
131,1.600000000000000e-02,3.999999999995934e-04,-2.485617696602942e-04,-3.117447439444966e-03,1.558629611622702e+00,2.755308091026044e+00,-8.247269462258886e-01,2.037826667406091e+00,
132,1.586666666666649e-02,5.000000000000000e-04,-2.140534393507063e-04,-3.083234436927954e-03,1.577005508479155e+00,1.336561590193814e+00,-1.046679018993782e+00,2.107121532576502e+00,
133,1.573333333333297e-02,5.000000000000000e-04,-2.083939824785327e-04,-3.044748326171840e-03,4.108448494357573e+00,1.220589251203511e+00,-2.540450501270404e+00,5.844252390673296e+00,
134,1.559999999999946e-02,5.000000000000000e-04,-2.027567465352792e-04,-3.006246980867065e-03,8.902872584195908e+00,2.013436399818064e+00,-3.949756632703276e+00,1.048172890171029e+01,
135,1.546666666666594e-02,5.000000000000000e-04,-1.971482968469133e-04,-2.967744928277308e-03,1.408745278008309e+01,3.159415649250200e+00,-5.164332329257469e+00,1.503673199737622e+01,
136,1.533333333333243e-02,5.000000000000000e-04,-1.915696194709094e-04,-2.929253776470778e-03,1.882991198960477e+01,4.222802720175173e+00,-6.250377428273014e+00,1.922593335036079e+01,
137,1.519999999999892e-02,5.000000000000000e-04,-1.860205873688545e-04,-2.890781611706679e-03,2.311171485578414e+01,5.140434791032122e+00,-7.280075702106194e+00,2.312930859492651e+01,
138,1.506666666666540e-02,5.000000000000000e-04,-1.805014719056867e-04,-2.852334600208237e-03,2.711222750200971e+01,5.953617725235566e+00,-8.284985387181514e+00,2.687472230831506e+01,
139,1.493333333333189e-02,5.000000000000000e-04,-1.750131257085251e-04,-2.813918127064970e-03,3.098170268924733e+01,6.722003818373608e+00,-9.279469678518005e+00,3.054451209896160e+01,
140,1.479999999999837e-02,5.000000000000000e-04,-1.695567462508699e-04,-2.775537350995786e-03,3.479499286037824e+01,7.470543411431848e+00,-1.026835895916562e+01,3.418160792802372e+01,
141,1.466666666666486e-02,5.000000000000000e-04,-1.641337140497680e-04,-2.737197380227815e-03,3.858787390572154e+01,8.210979160642841e+00,-1.125345233012747e+01,3.780630227540636e+01,
142,1.453333333333135e-02,5.000000000000000e-04,-1.587454955773349e-04,-2.698903331952661e-03,4.237563699220253e+01,8.947311447172593e+00,-1.223512587523227e+01,4.142760154143144e+01,
143,1.439999999999783e-02,5.000000000000000e-04,-1.533935948423546e-04,-2.660660344486360e-03,4.616465526837564e+01,9.680794223437770e+00,-1.321322331220369e+01,4.504918642926848e+01,
144,1.426666666666432e-02,5.000000000000000e-04,-1.480795290593471e-04,-2.622473576924055e-03,4.995734330282998e+01,1.041155302915807e+01,-1.418736577696152e+01,4.867232189988926e+01,
145,1.413333333333080e-02,5.000000000000000e-04,-1.428048167287852e-04,-2.584348205417582e-03,5.375448763495801e+01,1.113934904514687e+01,-1.515710542695864e+01,5.229724100489975e+01,
146,1.399999999999729e-02,5.000000000000000e-04,-1.375709717815583e-04,-2.546289419527009e-03,5.755625704756544e+01,1.186384191045864e+01,-1.612198730362165e+01,5.592379367974116e+01,
147,1.386666666666378e-02,5.000000000000000e-04,-1.323795007406001e-04,-2.508302419430746e-03,6.136264685427586e+01,1.258469063928775e+01,-1.708157264622900e+01,5.955173808366045e+01,
148,1.373333333333026e-02,5.000000000000000e-04,-1.272319013278621e-04,-2.470392414078013e-03,6.517365597206641e+01,1.330158275040502e+01,-1.803544300342387e+01,6.318085784185275e+01,
149,1.359999999999675e-02,5.000000000000000e-04,-1.221296617169798e-04,-2.432564620106801e-03,6.898934381119571e+01,1.401423795051243e+01,-1.898319683346639e+01,6.681099694261303e+01,
150,1.346666666666323e-02,5.000000000000000e-04,-1.170742600286913e-04,-2.394824261309042e-03,7.280983523258931e+01,1.472240277459841e+01,-1.992444408077834e+01,7.044205914987086e+01,
151,1.333333333332972e-02,5.000000000000000e-04,-1.120671638804038e-04,-2.357176568450961e-03,7.663530694408161e+01,1.542584348235024e+01,-2.085880120391648e+01,7.407399522052970e+01,
152,1.319999999999620e-02,5.000000000000000e-04,-1.071098299133673e-04,-2.319626779305082e-03,8.046597052767251e+01,1.612433992486381e+01,-2.178588744329871e+01,7.770678860560773e+01,
153,1.306666666666269e-02,5.000000000000000e-04,-1.022037032759296e-04,-2.282180138797565e-03,8.430205802733937e+01,1.681768109800607e+01,-2.270532233020184e+01,8.134044367972051e+01,
154,1.293333333332918e-02,5.000000000000000e-04,-9.735021706480916e-05,-2.244841899211565e-03,8.814381158353630e+01,1.750566227155944e+01,-2.361672416110287e+01,8.497497736762051e+01,
155,1.279999999999566e-02,5.000000000000000e-04,-9.255079173417326e-05,-2.207617320413235e-03,9.199147677975189e+01,1.818808335974862e+01,-2.451970913158567e+01,8.861041374408566e+01,
156,1.266666666666215e-02,5.000000000000000e-04,-8.780683448253251e-05,-2.170511670083217e-03,9.584529867806674e+01,1.886474808347784e+01,-2.541389086014216e+01,9.224678078096238e+01,
157,1.253333333332863e-02,5.000000000000000e-04,-8.311973862536198e-05,-2.133530223945831e-03,9.970551965696376e+01,1.953546364747755e+01,-2.629888014057225e+01,9.588410852251221e+01,
158,1.239999999999512e-02,5.000000000000000e-04,-7.849088295882821e-05,-2.096678265993121e-03,1.035723783029299e+02,2.020004069606885e+01,-2.717428479646419e+01,9.952242809954845e+01,
159,1.226666666666161e-02,5.000000000000000e-04,-7.392163111784199e-05,-2.059961088703106e-03,1.074461088482822e+02,2.085829339707691e+01,-2.803970959029662e+01,1.031617712151389e+02,
160,1.213333333332809e-02,5.000000000000000e-04,-6.941333093020362e-05,-2.023383993252558e-03,1.113269409106243e+02,2.151003960780539e+01,-2.889475614732912e+01,1.068021698791498e+02,
161,1.199999999999458e-02,5.000000000000000e-04,-6.496731376770374e-05,-1.986952289724724e-03,1.152150993344619e+02,2.215510105470479e+01,-2.973902288020422e+01,1.104436562565077e+02,
162,1.186666666666143e-02,5.000000000000000e-04,-6.058489389452282e-05,-1.950671297312440e-03,1.191108040493222e+02,2.279330351593478e+01,-3.057210491654956e+01,1.140862625608936e+02,
163,1.173333333332827e-02,5.000000000000000e-04,-5.626736781293628e-05,-1.914546344516422e-03,1.230142699393690e+02,2.342447700315685e+01,-3.139359402025683e+01,1.177300209764376e+02,
164,1.159999999999512e-02,5.000000000000000e-04,-5.201601360639835e-05,-1.878582769339767e-03,1.269257066963093e+02,2.404845595048202e+01,-3.220307851517418e+01,1.213749635816123e+02,
165,1.146666666666197e-02,5.000000000000000e-04,-4.783209027979000e-05,-1.842785919477663e-03,1.308453186486353e+02,2.466507938426917e+01,-3.300014320669972e+01,1.250211222829518e+02,
166,1.133333333332882e-02,5.000000000000000e-04,-4.371683709678231e-05,-1.807161152502696e-03,1.347733045806508e+02,2.527419110511993e+01,-3.378436930660690e+01,1.286685287461856e+02,
167,1.119999999999566e-02,5.000000000000000e-04,-3.967147291424326e-05,-1.771713836045559e-03,1.387098575428266e+02,2.587563986279581e+01,-3.455533435917341e+01,1.323172143379751e+02,
168,1.106666666666251e-02,5.000000000000000e-04,-3.569719551357821e-05,-1.736449347970976e-03,1.426551646622736e+02,2.646927954393889e+01,-3.531261217102746e+01,1.359672100695475e+02,
169,1.093333333332936e-02,5.000000000000000e-04,-3.179518092896321e-05,-1.701373076548667e-03,1.466094069322507e+02,2.705496934491936e+01,-3.605577274250270e+01,1.396185465440001e+02,
170,1.079999999999620e-02,5.000000000000000e-04,-2.796658277236200e-05,-1.666490420619222e-03,1.505727590068192e+02,2.763257395975819e+01,-3.678438220575889e+01,1.432712539082527e+02,
171,1.066666666666305e-02,5.000000000000000e-04,-2.421253155537090e-05,-1.631806789754670e-03,1.545453889966999e+02,2.820196376793340e+01,-3.749800276259758e+01,1.469253618109277e+02,
172,1.053333333332990e-02,5.000000000000000e-04,-2.053413400772243e-05,-1.597327604413581e-03,1.585274582530284e+02,2.876301502296668e+01,-3.819619263098842e+01,1.505808993625095e+02,
173,1.039999999999675e-02,5.000000000000000e-04,-1.693247239247644e-05,-1.563058296090524e-03,1.625191211525456e+02,2.931561004403261e+01,-3.887850599033028e+01,1.542378950964916e+02,
174,1.026666666666359e-02,5.000000000000000e-04,-1.340860381785872e-05,-1.529004307459697e-03,1.665205248809901e+02,2.985963741345692e+01,-3.954449293535058e+01,1.578963769358554e+02,
175,1.013333333333044e-02,5.000000000000000e-04,-9.963559545643614e-06,-1.495171092512570e-03,1.705318092098939e+02,3.039499217132896e+01,-4.019369943260033e+01,1.615563721615867e+02,
176,9.999999999997289e-03,5.000000000000000e-04,-6.598344296130514e-06,-1.461564116689302e-03,1.745531062767743e+02,3.092157602199836e+01,-4.082566728024264e+01,1.652179073794270e+02,
177,9.866666666664137e-03,5.000000000000000e-04,-3.313935549589311e-06,-1.428188857003826e-03,1.785845403521699e+02,3.143929753095706e+01,-4.143993407529661e+01,1.688810084928835e+02,
178,9.733333333330985e-03,5.000000000000000e-04,-1.112828442136469e-07,-1.395050802162366e-03,1.826262276157769e+02,3.194807233814247e+01,-4.203603318357059e+01,1.725457006740878e+02,
179,9.599999999997832e-03,5.000000000000000e-04,3.008692929489590e-06,-1.362155452675200e-03,1.866782759211707e+02,3.244782336405636e+01,-4.261349371428017e+01,1.762120083368903e+02,
180,9.466666666664680e-03,5.000000000000000e-04,6.045100237884470e-06,-1.329508320961509e-03,1.907407845588648e+02,3.293848102253784e+01,-4.317184050217394e+01,1.798799551110452e+02,
181,9.333333333331527e-03,5.000000000000000e-04,8.997077616993747e-06,-1.297114931447097e-03,1.948138440223705e+02,3.341998344002102e+01,-4.371059409252591e+01,1.835495638168642e+02,
182,9.199999999998374e-03,5.000000000000000e-04,1.186379438892409e-05,-1.264980820654808e-03,1.988975357599313e+02,3.389227666761201e+01,-4.422927073216668e+01,1.872208564399826e+02,
183,9.066666666665221e-03,5.000000000000000e-04,1.464445138189907e-05,-1.233111537287417e-03,2.029919319335991e+02,3.435531490749692e+01,-4.472738236870509e+01,1.908938541080714e+02,
184,8.933333333332068e-03,5.000000000000000e-04,1.733828165399793e-05,-1.201512642302846e-03,2.070970951742723e+02,3.480906073714006e+01,-4.520443664992904e+01,1.945685770661857e+02,
185,8.799999999998916e-03,5.000000000000000e-04,1.994455122051131e-05,-1.170189708981458e-03,2.112130783233418e+02,3.525348533146673e+01,-4.565993693591376e+01,1.982450446539152e+02,
186,8.666666666665764e-03,5.000000000000000e-04,2.246255978502172e-05,-1.139148322985266e-03,2.153399241885307e+02,3.568856869954202e+01,-4.609338231189352e+01,2.019232752825501e+02,
187,8.533333333332610e-03,5.000000000000000e-04,2.489164147412866e-05,-1.108394082408843e-03,2.194776652808408e+02,3.611429991261962e+01,-4.650426761152913e+01,2.056032864122037e+02,
188,8.399999999999460e-03,5.000000000000000e-04,2.723116557587485e-05,-1.077932597821729e-03,2.236263235582235e+02,3.653067734061000e+01,-4.689208344218558e+01,2.092850945284493e+02,
189,8.266666666666304e-03,5.000000000000000e-04,2.948053728184838e-05,-1.047769492302127e-03,2.277859101644746e+02,3.693770889187769e+01,-4.725631622338064e+01,2.129687151226730e+02,
190,8.133333333333154e-03,5.000000000000000e-04,3.163919843295785e-05,-1.017910401461694e-03,2.319564251601996e+02,3.733541225076385e+01,-4.759644822486219e+01,2.166541626657164e+02,
191,8.000000000000000e-03,5.000000000000000e-04,3.370662826886387e-05,-9.883609734612153e-04,2.361378572627935e+02,3.772381512500867e+01,-4.791195761695168e+01,2.203414505902350e+02,
192,7.866666666666848e-03,5.000000000000000e-04,3.568234418106452e-05,-9.591268690169429e-04,2.403301835696822e+02,3.810295548851320e+01,-4.820231852768063e+01,2.240305912663918e+02,
193,7.733333333333694e-03,5.000000000000000e-04,3.756590246961654e-05,-9.302137613973962e-04,2.445333692890555e+02,3.847288183070679e+01,-4.846700110352741e+01,2.277215959794977e+02,
194,7.600000000000542e-03,5.000000000000000e-04,3.935689910344027e-05,-9.016273364104143e-04,2.487473674661049e+02,3.883365340811392e+01,-4.870547158360824e+01,2.314144749110277e+02,
195,7.466666666667390e-03,5.000000000000000e-04,4.105497048422610e-05,-8.733732923802313e-04,2.529721187032567e+02,3.918534049642878e+01,-4.891719237784667e+01,2.351092371145389e+02,
196,7.333333333334238e-03,5.000000000000000e-04,4.265979421387696e-05,-8.454573401143778e-04,2.572075508819540e+02,3.952802464524740e+01,-4.910162215311832e+01,2.388058904945760e+02,
197,7.200000000001082e-03,5.000000000000000e-04,4.417108986545528e-05,-8.178852028601737e-04,2.614535788809832e+02,3.986179893667573e+01,-4.925821593119652e+01,2.425044417856793e+02,
198,7.066666666667932e-03,5.000000000000000e-04,4.558861975761369e-05,-7.906626162506065e-04,2.657101042940931e+02,4.018676824398653e+01,-4.938642519097263e+01,2.462048965308030e+02,
199,6.933333333334780e-03,5.000000000000000e-04,4.691218973243437e-05,-7.637953282393597e-04,2.699770151413073e+02,4.050304949163788e+01,-4.948569798308672e+01,2.499072590591934e+02,
200,6.800000000001628e-03,5.000000000000000e-04,4.814164993664758e-05,-7.372890990247845e-04,2.742541855865009e+02,4.081077192062766e+01,-4.955547905011379e+01,2.536115324655428e+02,
201,6.666666666668472e-03,5.000000000000000e-04,4.927689560616516e-05,-7.111497009625795e-04,2.785414756417232e+02,4.111007734845241e+01,-4.959520995922783e+01,2.573177185875417e+02,
202,6.533333333335322e-03,5.000000000000000e-04,5.031786785386606e-05,-6.853829184669599e-04,2.828387308844848e+02,4.140112044054782e+01,-4.960432924213465e+01,2.610258179857438e+02,
203,6.400000000002170e-03,5.000000000000000e-04,5.126455446057199e-05,-6.599945479000819e-04,2.871457821593050e+02,4.168406897176425e+01,-4.958227254433478e+01,2.647358299203289e+02,
204,6.266666666669017e-03,5.000000000000000e-04,5.211699066914084e-05,-6.349903974495085e-04,2.914624452903496e+02,4.195910409920482e+01,-4.952847278665709e+01,2.684477523315465e+02,
205,6.133333333335862e-03,5.000000000000000e-04,5.287525998159942e-05,-6.103762869934676e-04,2.957885207838144e+02,4.222642062762846e+01,-4.944236033300307e+01,2.721615818164087e+02,
206,6.000000000002711e-03,5.000000000000000e-04,5.353949495922647e-05,-5.861580479536939e-04,3.001237935334415e+02,4.248622728056062e+01,-4.932336317296048e+01,2.758773136078329e+02,
207,5.866666666669559e-03,5.000000000000000e-04,5.410987802551549e-05,-5.623415231356051e-04,3.044680325283750e+02,4.273874697141683e+01,-4.917090711015649e+01,2.795949415534880e+02,
208,5.733333333336407e-03,5.000000000000000e-04,5.458664227189604e-05,-5.389325665555905e-04,3.088209905548230e+02,4.298421707306596e+01,-4.898441596462892e+01,2.833144580934305e+02,
209,5.600000000003252e-03,5.000000000000000e-04,5.497007226613987e-05,-5.159370432551773e-04,3.131824039007022e+02,4.322288968815244e+01,-4.876331178445194e+01,2.870358542388503e+02,
210,5.466666666670101e-03,5.000000000000000e-04,5.526050486332674e-05,-4.933608291018388e-04,3.175519920632518e+02,4.345503192242907e+01,-4.850701506921947e+01,2.907591195511187e+02,
211,5.333333333336949e-03,5.000000000000000e-04,5.545833001926323e-05,-4.712098105762039e-04,3.219294574474603e+02,4.368092615027572e+01,-4.821494500420530e+01,2.944842421184442e+02,
212,5.200000000003794e-03,5.000000000000000e-04,5.556399160623678e-05,-4.494898845454495e-04,3.263144850775001e+02,4.390087028836567e+01,-4.788651970626162e+01,2.982112085361286e+02,
213,5.066666666670641e-03,5.000000000000000e-04,5.557798823098151e-05,-4.282069580226213e-04,3.307067423000164e+02,4.411517806292328e+01,-4.752115648180728e+01,3.019400038837807e+02,
214,4.933333333337491e-03,5.000000000000000e-04,5.550087405471663e-05,-4.073669479116541e-04,3.351058784913602e+02,4.432417927670993e+01,-4.711827209533840e+01,3.056706117034490e+02,
215,4.800000000004339e-03,5.000000000000000e-04,5.533325961511618e-05,-3.869757807378578e-04,3.395115247684823e+02,4.452822007687170e+01,-4.667728305154134e+01,3.094030139786593e+02,
216,4.666666666671183e-03,5.000000000000000e-04,5.507581265009037e-05,-3.670393923636325e-04,3.439232936922663e+02,4.472766321489910e+01,-4.619760588902243e+01,3.131371911099973e+02,
217,4.533333333338031e-03,5.000000000000000e-04,5.472925892319930e-05,-3.475637276891641e-04,3.483407789869516e+02,4.492288831409334e+01,-4.567865748609044e+01,3.168731218946992e+02,
218,4.400000000004881e-03,5.000000000000000e-04,5.429438305055220e-05,-3.285547403378725e-04,3.527635552453712e+02,4.511429212380796e+01,-4.511985537845823e+01,3.206107835003882e+02,
219,4.266666666671729e-03,5.000000000000000e-04,5.377202932905029e-05,-3.100183923263635e-04,3.571911776452266e+02,4.530228877782612e+01,-4.452061809149468e+01,3.243501514412111e+02,
220,4.133333333338573e-03,5.000000000000000e-04,5.316310256578378e-05,-2.919606537186363e-04,3.616231816625520e+02,4.548731004552782e+01,-4.388036548377647e+01,3.280911995513059e+02,
221,4.000000000005421e-03,5.000000000000000e-04,5.246856890842824e-05,-2.743875022642771e-04,3.660590827897157e+02,4.566980558224431e+01,-4.319851910557870e+01,3.318338999577743e+02,
222,3.866666666671908e-03,5.000000000000000e-04,5.168945667644862e-05,-2.573049230203157e-04,3.704983762587839e+02,4.585024317439790e+01,-4.247450257061446e+01,3.355782230563564e+02,
223,3.733333333338395e-03,5.000000000000000e-04,5.082685719289416e-05,-2.407189079566592e-04,3.749405367807975e+02,4.602910898659895e+01,-4.170774194833982e+01,3.393241374958986e+02,
224,3.600000000004879e-03,5.000000000000000e-04,4.988192561651107e-05,-2.246354555443036e-04,3.793850183163079e+02,4.620690781017909e+01,-4.089766617407698e+01,3.430716101841992e+02,
225,3.466666666671366e-03,5.000000000000000e-04,4.885588177377789e-05,-2.090605703264240e-04,3.838312539161274e+02,4.638416332939200e+01,-4.004370748862537e+01,3.468206063416514e+02,
226,3.333333333337851e-03,5.000000000000000e-04,4.775001099027040e-05,-1.940002624717851e-04,3.882786556790863e+02,4.656141841195070e+01,-3.914530191117259e+01,3.505710896413896e+02,
227,3.200000000004337e-03,5.000000000000000e-04,4.656566492042678e-05,-1.794605473103468e-04,3.927266149114942e+02,4.673923544789869e+01,-3.820188975721236e+01,3.543230224980799e+02,
228,3.066666666670824e-03,5.000000000000000e-04,4.530426237429669e-05,-1.654474448513256e-04,3.971745026011999e+02,4.691819676526499e+01,-3.721291620302623e+01,3.580763665856347e+02,
229,2.933333333337309e-03,5.000000000000000e-04,4.396729013924663e-05,-1.519669792848997e-04,4.016216703029307e+02,4.709890513615585e+01,-3.617783188748196e+01,3.618310836589524e+02,
230,2.800000000003794e-03,5.000000000000000e-04,4.255630379406175e-05,-1.390251784705151e-04,4.060674514759015e+02,4.728198437257416e+01,-3.509609351022641e+01,3.655871367037782e+02,
231,2.666666666670281e-03,5.000000000000000e-04,4.107292851282249e-05,-1.266280734177243e-04,4.105111630905514e+02,4.746807994557678e+01,-3.396716431531403e+01,3.693444912624299e+02,
232,2.533333333336767e-03,5.000000000000000e-04,3.951885985742409e-05,-1.147816977699596e-04,4.149521068349798e+02,4.765785944611261e+01,-3.279051425444936e+01,3.731031163971153e+02,
233,2.400000000003254e-03,5.000000000000000e-04,3.789586456206160e-05,-1.034920873073497e-04,4.193895684882193e+02,4.785201260097418e+01,-3.156561949403845e+01,3.768629840815327e+02,
234,2.266666666669739e-03,5.000000000000000e-04,3.620578132251334e-05,-9.276527949026917e-05,4.238228130355664e+02,4.805125056006001e+01,-3.029196084311936e+01,3.806240648358531e+02,
235,2.133333333336224e-03,5.000000000000000e-04,3.445052161862329e-05,-8.260731306797071e-05,4.282510726432491e+02,4.825630473877419e+01,-2.896902076289934e+01,3.843863164716207e+02,
236,2.000000000002711e-03,5.000000000000000e-04,3.263207061717990e-05,-7.302422777393063e-05,4.326735259832714e+02,4.846792713426636e+01,-2.759627901849604e+01,3.881496626941588e+02,
237,1.866666666669197e-03,5.000000000000000e-04,3.075248821388631e-05,-6.402206412815764e-05,4.370892719307736e+02,4.868689701045098e+01,-2.617320735180629e+01,3.919139599147617e+02,
238,1.733333333335682e-03,5.000000000000000e-04,2.881391026048911e-05,-5.560686341146777e-05,4.414973007720407e+02,4.891403741219465e+01,-2.469926142821728e+01,3.956789515891184e+02,
239,1.600000000002169e-03,5.000000000000000e-04,2.681855001585049e-05,-4.778466810661629e-05,4.458964280771391e+02,4.915022272256576e+01,-2.317385303959511e+01,3.994441904973163e+02,
240,1.466666666668654e-03,5.000000000000000e-04,2.476870009531047e-05,-4.056152387452273e-05,4.502849114341147e+02,4.939621876426123e+01,-2.159623387298173e+01,4.032087960108638e+02,
241,1.333333333335140e-03,5.000000000000000e-04,2.266673686104311e-05,-3.394348593705203e-05,4.546586996849105e+02,4.965184369919898e+01,-1.996504919596286e+01,4.069704733184212e+02,
242,1.200000000001627e-03,5.000000000000000e-04,2.051513540353960e-05,-2.793663617582999e-05,4.590044510206696e+02,4.991243684139023e+01,-1.827699536217127e+01,4.107218892427515e+02,
243,1.066666666668112e-03,5.000000000000000e-04,1.831652504515071e-05,-2.254711777503843e-05,4.632786933768164e+02,5.015926234632053e+01,-1.652298713505895e+01,4.144390192904403e+02,
244,9.333333333345975e-04,5.000000000000000e-04,1.607386459460043e-05,-1.778118446709573e-05,4.673440665457686e+02,5.032762475853875e+01,-1.468057394891804e+01,4.180487886918950e+02,
245,8.000000000010846e-04,5.000000000000000e-04,1.379096853851456e-05,-1.364514728958572e-05,4.708455231001260e+02,5.026108361485673e+01,-1.269467854455544e+01,4.213500803257744e+02,
246,6.666666666675699e-04,5.000000000000000e-04,1.147371659747058e-05,-1.014493058856544e-05,4.727978454736214e+02,4.946469665430777e+01,-1.047930165127064e+01,4.238516461471731e+02,
247,5.333333333340570e-04,5.000000000000000e-04,9.133305138057236e-06,-7.283186999290933e-06,4.716444601135977e+02,4.742791516054147e+01,-7.824451900382041e+00,4.245050826575271e+02,
248,4.000000000005423e-04,5.000000000000000e-04,6.789193099813282e-06,-5.053318385389575e-06,4.616829692415490e+02,4.024229439599043e+01,-5.311662972142443e+00,4.215745455650737e+02,
249,2.666666666670293e-04,5.000000000000000e-04,4.486673839865545e-06,-3.394194534727909e-06,4.582463256097232e+02,4.365406935120465e+01,-2.032978752851866e+00,4.146121934530716e+02,
250,1.333333333335129e-04,5.000000000000000e-04,2.192535777942033e-06,-2.205868213709754e-06,4.180324740829510e+02,-6.434904254309304e-01,-4.002239221403691e+01,4.262589949445768e+02,
251,0.000000000000000e+00,4.000000000004066e-04,0.000000000000000e+00,0.000000000000000e+00,4.762169493434315e+02,3.171691553798535e+02,-6.093981138850718e+01,2.003767531749830e+02,
252,0.000000000000000e+00,3.000000000008132e-04,0.000000000000000e+00,0.000000000000000e+00,3.435211526491001e+02,2.286178586051273e+02,-2.156672424044140e+01,1.227324788310278e+02,
253,0.000000000000000e+00,2.000000000010842e-04,0.000000000000000e+00,0.000000000000000e+00,2.239496172462366e+02,1.491111916957279e+02,2.900248309004147e+00,7.506287830808611e+01,
254,0.000000000000000e+00,1.000000000012198e-04,0.000000000000000e+00,0.000000000000000e+00,1.128052991931311e+02,7.520674452280149e+01,1.666433006205057e+01,5.024391404902303e+01,
255,0.000000000000000e+00,1.355361135824129e-15,0.000000000000000e+00,0.000000000000000e+00,4.283699142521801e+00,2.937673323056740e+00,2.152903024961928e+01,4.307909422751079e+01,
256,0.000000000000000e+00,-9.999999999878032e-05,0.000000000000000e+00,0.000000000000000e+00,-1.048998401516775e+02,-6.991698766214969e+01,1.800895406490857e+01,5.021045383535196e+01,
257,0.000000000000000e+00,-1.999999999989157e-04,0.000000000000000e+00,0.000000000000000e+00,-2.181039758821859e+02,-1.455773116461121e+02,5.512246251579371e+00,7.335977412836269e+01,
258,0.000000000000000e+00,-2.999999999991868e-04,0.000000000000000e+00,0.000000000000000e+00,-3.415172545936344e+02,-2.280833720857406e+02,-1.785697017606406e+01,1.189232157162345e+02,
259,0.000000000000000e+00,-3.999999999995934e-04,0.000000000000000e+00,0.000000000000000e+00,-4.798567969677208e+02,-3.202717176385877e+02,-5.646578551634162e+01,1.955017577424706e+02,
260,1.333333333330840e-04,-3.999999999996000e-04,-1.406645860215052e-06,-1.003856921786650e-06,-2.997826549239309e+02,2.583797362936570e+01,-1.693899344607447e+01,3.273782395567986e+02,
261,1.333333333331317e-04,-2.999999999992003e-04,-1.003892956545524e-06,-3.174597220149994e-07,-2.388844289777427e+02,-2.137567395668087e+01,-8.853713946486511e+00,2.182283471811056e+02,
262,1.333333333331793e-04,-1.999999999989337e-04,-6.429773898160307e-07,9.799586853657452e-08,-1.636811779482646e+02,-2.929781626380520e+01,4.664974059938362e+00,1.347068514572878e+02,
263,1.333333333332270e-04,-9.999999999880062e-05,-3.101473511206432e-07,3.201598995558223e-07,-8.160969955690001e+01,-1.867730424611443e+01,1.235774834387959e+01,6.761170132510807e+01,
264,1.333333333332747e-04,1.332809730636431e-15,1.256794255010960e-08,3.827390158063787e-07,2.220505257708311e+00,-1.360144032580827e+00,1.449765305208698e+01,2.921555793434032e+01,
265,1.333333333333223e-04,1.000000000011995e-04,3.350267698448130e-07,2.962554512284164e-07,8.575406756872952e+01,1.591282319621974e+01,1.093531414041182e+01,7.318554363327907e+01,
266,1.333333333333700e-04,2.000000000010662e-04,6.670218813707396e-07,5.156017822247277e-08,1.669727461185421e+02,2.649111006711754e+01,1.793659027276195e+00,1.405274311958680e+02,
267,1.333333333334176e-04,3.000000000007996e-04,1.026071321518898e-06,-3.834115263612689e-07,2.410489484096735e+02,1.900843203954854e+01,-1.322758399704507e+01,2.236109720552801e+02,
268,1.333333333334653e-04,4.000000000003998e-04,1.426299173083347e-06,-1.083396925127737e-06,3.014356609076567e+02,-2.650202753986023e+01,-2.336114275767802e+01,3.312493010831557e+02,
269,2.666666666661684e-04,-3.999999999996069e-04,-3.368770561440154e-06,-2.206680696469089e-06,-3.723859705684735e+02,-1.034375590259149e+01,1.238942960393843e+00,3.620506941283403e+02,
270,2.666666666662640e-04,-2.999999999992138e-04,-2.388060005555364e-06,-1.349636097826972e-06,-2.671869375381904e+02,2.703162343219432e+00,-3.697649677052987e+00,2.699914007270125e+02,
271,2.666666666663597e-04,-1.999999999989518e-04,-1.534331301076083e-06,-7.669302497007063e-07,-1.772371035859600e+02,-3.234060187184969e+00,-5.774185576326891e+00,1.743858480161605e+02,
272,2.666666666664554e-04,-9.999999999882095e-05,-7.371774940059392e-07,-4.377314833476155e-07,-8.723799382006982e+01,-4.402724540798776e+00,-5.687580203675044e+00,8.361265520758380e+01,
273,2.666666666665511e-04,1.310204115340108e-15,3.300710632823184e-08,-3.446254516222033e-07,2.739942161077854e+00,-2.523158726563199e+00,-6.138733056247785e+00,1.335800902443793e+01,
274,2.666666666666467e-04,1.000000000011791e-04,8.021772376686019e-07,-4.803926015997454e-07,9.246328179053133e+01,-4.478458068965949e-01,-7.567920602859219e+00,9.413591939546912e+01,
275,2.666666666667424e-04,2.000000000010481e-04,1.596139491066978e-06,-8.492526417703065e-07,1.817408630395442e+02,-9.569801600087278e-01,-9.578283201775619e+00,1.836994173810633e+02,
276,2.666666666668380e-04,3.000000000007860e-04,2.444316717275524e-06,-1.465147800760851e-06,2.707548121942323e+02,-5.509464547473621e+00,-9.539036855154238e+00,2.769222336687934e+02,
277,2.666666666669336e-04,4.000000000003931e-04,3.416534732675235e-06,-2.344715042210648e-06,3.739033076308581e+02,8.916641097356791e+00,-6.674024535210669e+00,3.652306629531859e+02,
278,3.999999999992524e-04,-3.999999999996137e-04,-5.295498833292286e-06,-3.778230489246123e-06,-3.601919158239068e+02,-1.208944330445103e+00,5.608076588415521e+00,3.591581488903763e+02,
279,3.999999999993958e-04,-2.999999999992274e-04,-3.871546127034507e-06,-2.940207086645907e-06,-2.759834611537757e+02,-1.468531363424672e+00,2.918670334844666e-01,2.745155504215787e+02,
280,3.999999999995392e-04,-1.999999999989699e-04,-2.513844824451516e-06,-2.335112641721434e-06,-1.825044146311076e+02,2.299588993889277e-01,-5.144742497543220e+00,1.830238366198434e+02,
281,3.999999999996823e-04,-9.999999999884125e-05,-1.215870969403351e-06,-1.983859916369463e-06,-8.982841433435800e+01,-1.416323005096080e+00,-8.923296426690856e+00,9.019533674025573e+01,
282,3.999999999998258e-04,1.287598500043785e-15,5.230859202782503e-08,-1.887244894749695e-06,2.936721774051417e+00,-2.952937471581874e+00,-1.092890773050800e+01,2.263740671449589e+01,
283,3.999999999999691e-04,1.000000000011587e-04,1.318327703947271e-06,-2.043465537823754e-06,9.545747679844084e+01,-4.222337867451737e+00,-1.148875037444437e+01,1.022938463080349e+02,
284,4.000000000001123e-04,2.000000000010300e-04,2.609647834291535e-06,-2.450348307164784e-06,1.874141206463929e+02,-5.054280693868391e+00,-1.031784789889594e+01,1.935714789310008e+02,
285,4.000000000002556e-04,3.000000000007724e-04,3.955529335822582e-06,-3.102950768485293e-06,2.795086126853446e+02,-2.126885452356101e+00,-7.531894996233106e+00,2.820380676082715e+02,
286,4.000000000003990e-04,4.000000000003863e-04,5.361331044260963e-06,-3.976099491511392e-06,3.615515750324860e+02,-8.073792381501779e-01,-4.763437231089474e+00,3.624841694158893e+02,
287,5.333333333323365e-04,-3.999999999996204e-04,-7.206982557673625e-06,-5.934041166582046e-06,-3.556590009717021e+02,-1.407595551831520e-01,5.931111997610765e+00,3.557160838899572e+02,
288,5.333333333325278e-04,-2.999999999992410e-04,-5.333896761590462e-06,-5.116562118738544e-06,-2.703334750962776e+02,-1.354406180868523e+00,1.593646487116382e+00,2.689979523176784e+02,
289,5.333333333327188e-04,-1.999999999989879e-04,-3.500219482098123e-06,-4.535039724137863e-06,-1.811873578150150e+02,-1.615056458913880e+00,-3.542915708275149e+00,1.797120486255448e+02,
290,5.333333333329101e-04,-9.999999999886161e-05,-1.705552388786486e-06,-4.197493359819199e-06,-8.932715645578320e+01,-2.020195706782980e+00,-7.774609319294771e+00,8.868079609192807e+01,
291,5.333333333331013e-04,1.264965779693150e-15,6.433291153942639e-08,-4.110714121812030e-06,2.952886210920957e+00,-3.132944116550613e+00,-1.035699326960387e+01,2.158950136342320e+01,
292,5.333333333332924e-04,1.000000000011385e-04,1.830745690408645e-06,-4.274949274919025e-06,9.497587330187393e+01,-3.983083957922608e+00,-1.108142090107184e+01,1.014103879229987e+02,
293,5.333333333334834e-04,2.000000000010118e-04,3.614733097183470e-06,-4.685620570556044e-06,1.860207178590588e+02,-3.628651358047518e+00,-1.017803049468409e+01,1.907387020597791e+02,
294,5.333333333336747e-04,3.000000000007590e-04,5.429796107598801e-06,-5.331588505641384e-06,2.737359807199932e+02,-2.659856255360122e+00,-8.385346228135539e+00,2.769041618010985e+02,
295,5.333333333338659e-04,4.000000000003794e-04,7.275352791247413e-06,-6.200490167149312e-06,3.571139015338827e+02,-1.959660098623912e+00,-7.373758070757642e+00,3.593762817657806e+02,
296,6.666666666654207e-04,-3.999999999996272e-04,-9.113480797914273e-06,-8.709857223378158e-06,-3.528052950871158e+02,-4.924041433410853e-01,6.479502028351996e+00,3.525511436817384e+02,
297,6.666666666656597e-04,-2.999999999992545e-04,-6.778646815234459e-06,-7.914932963011277e-06,-2.657731975864010e+02,-1.722594695103499e+00,2.113223202926263e+00,2.640844253955147e+02,
298,6.666666666658984e-04,-1.999999999990060e-04,-4.473230918652247e-06,-7.357731102824633e-06,-1.774092606040610e+02,-2.314763023441898e+00,-2.380301576308042e+00,1.751592030850395e+02,
299,6.666666666661371e-04,-9.999999999888191e-05,-2.195156783608563e-06,-7.041374069438554e-06,-8.763215121506552e+01,-2.780308221185065e+00,-6.294769982719307e+00,8.578071913897385e+01,
300,6.666666666663759e-04,1.242468584614076e-15,6.475528194524459e-08,-6.968521622300915e-06,2.876892759246854e+00,-3.192564468798045e+00,-9.016536616386457e+00,1.902708704089035e+01,
301,6.666666666666146e-04,1.000000000011182e-04,2.319855225870246e-06,-7.139098282662043e-06,9.311718131931494e+01,-3.351595272869449e+00,-1.034909669325162e+01,9.866427958819679e+01,
302,6.666666666668536e-04,2.000000000009938e-04,4.583265170526309e-06,-7.548786615827104e-06,1.820826697338018e+02,-3.056053212707237e+00,-1.050810050715888e+01,1.863277420013951e+02,
303,6.666666666670923e-04,3.000000000007454e-04,6.863526477097037e-06,-8.190574845929080e-06,2.691035022424745e+02,-2.335168085247576e+00,-1.012378335431390e+01,2.721927914308204e+02,
304,6.666666666673310e-04,4.000000000003728e-04,9.161871461788824e-06,-9.056956089119317e-06,3.542980629625044e+02,-1.591502227503259e+00,-9.927591861214275e+00,3.564429981522770e+02,
305,7.999999999985048e-04,-3.999999999996339e-04,-1.101893101838941e-05,-1.211102040929996e-05,-3.500157206176549e+02,-9.267011163414178e-01,7.486458575109333e+00,3.494099766526076e+02,
306,7.999999999987917e-04,-2.999999999992680e-04,-8.216425646775866e-06,-1.133780550907976e-05,-2.623461489487456e+02,-1.982630024028108e+00,2.834893324863246e+00,2.604252454496590e+02,
307,7.999999999990784e-04,-1.999999999990241e-04,-5.440916588251801e-06,-1.080313377552539e-05,-1.744327842290214e+02,-2.639624317504278e+00,-1.504320213637608e+00,1.718195032864568e+02,
308,7.999999999993646e-04,-9.999999999890226e-05,-2.687823586417572e-06,-1.050673500756153e-05,-8.597631551316185e+01,-3.011456153305971e+00,-5.259098757805113e+00,8.362894455616461e+01,
309,7.999999999996517e-04,1.219835864263441e-15,5.009098655250091e-08,-1.044874820685290e-05,2.759260518448635e+00,-3.164657557820103e+00,-8.150679309396331e+00,1.734436790986715e+01,
310,7.999999999999381e-04,1.000000000010978e-04,2.781917371378678e-06,-1.062793155358149e-05,9.123801741878732e+01,-3.060907389547566e+00,-1.006778065165211e+01,9.642472737325792e+01,
311,8.000000000002246e-04,2.000000000009757e-04,5.516553201931445e-06,-1.104121759796824e-05,1.789302981567155e+02,-2.651018135523175e+00,-1.114892635616901e+01,1.829452613816580e+02,
312,8.000000000005112e-04,3.000000000007318e-04,8.260704415947892e-06,-1.168419104516624e-05,2.655899905042582e+02,-1.970553297865310e+00,-1.170347054230291e+01,2.685824444944722e+02,
313,8.000000000007979e-04,4.000000000003659e-04,1.101814392541030e-05,-1.255285493149875e-05,3.515321436086679e+02,-1.090816744864796e+00,-1.204896403820330e+01,3.534454163036560e+02,
314,9.333333333315888e-04,-3.999999999996409e-04,-1.292576511619145e-05,-1.613181071321113e-05,-3.470103858375855e+02,-1.204941055125463e+00,8.783663912852752e+00,3.462513778284945e+02,
315,9.333333333319232e-04,-2.999999999992817e-04,-9.655378212374528e-06,-1.538106607188194e-05,-2.595490646243431e+02,-2.114162405280078e+00,3.760248849948184e+00,2.575447277002438e+02,
316,9.333333333322576e-04,-1.999999999990421e-04,-6.412145285456191e-06,-1.486783864576360e-05,-1.721949817293356e+02,-2.716201861770179e+00,-7.223889309078295e-01,1.694849379988342e+02,
317,9.333333333325917e-04,-9.999999999892262e-05,-3.190159270594931e-06,-1.459066801046864e-05,-8.477790192598081e+01,-3.028821936858304e+00,-4.592623962972355e+00,8.226348435684585e+01,
318,9.333333333329261e-04,1.197230248967118e-15,1.726393944299176e-08,-1.454828169285428e-05,2.629934779623817e+00,-3.075387336670119e+00,-7.749309099085302e+00,1.651538272348957e+01,
319,9.333333333332605e-04,1.000000000010774e-04,3.217395172979586e-06,-1.473897117600740e-05,8.979946509852964e+01,-2.863287114594288e+00,-1.015882453621777e+01,9.486407387173210e+01,
320,9.333333333335948e-04,2.000000000009577e-04,6.417348485619010e-06,-1.516028324299996e-05,1.765076964642518e+02,-2.394375288334228e+00,-1.188804349767111e+01,1.804750774765799e+02,
321,9.333333333339288e-04,3.000000000007183e-04,9.623353156598677e-06,-1.580936035791859e-05,2.626972648470185e+02,-1.678111764655720e+00,-1.307443374434616e+01,2.656653967484395e+02,
322,9.333333333342631e-04,4.000000000003593e-04,1.284059723757824e-05,-1.668357612248852e-05,3.485530240455016e+02,-7.245824784749981e-01,-1.383363765552980e+01,3.503716948360067e+02,
323,1.066666666664673e-03,-3.999999999996475e-04,-1.483628352835991e-05,-2.076534976960571e-05,-3.438440252410297e+02,-1.365208641399512e+00,1.019069093141638e+01,3.430847425143265e+02,
324,1.066666666665055e-03,-2.999999999992951e-04,-1.110075622727278e-05,-2.003844478796000e-05,-2.570132487482255e+02,-2.167280322793198e+00,4.791116476685644e+00,2.550260512400039e+02,
325,1.066666666665437e-03,-1.999999999990603e-04,-7.393269228484131e-06,-1.954718339408715e-05,-1.703781213222331e+02,-2.699137689258585e+00,1.923340199148083e-02,1.676789880452598e+02,
326,1.066666666665819e-03,-9.999999999894300e-05,-3.707386458415017e-06,-1.928970773321138e-05,-8.386763901016512e+01,-2.957837071084395e+00,-4.119382197157571e+00,8.132818262180895e+01,
327,1.066666666666202e-03,1.174624633670796e-15,-3.656177225740287e-08,-1.926426086837170e-05,2.501867511699256e+00,-2.952497667759628e+00,-7.604496537900422e+00,1.615746174034312e+01,
328,1.066666666666583e-03,1.000000000010572e-04,3.625841934040201e-06,-1.946895488997098e-05,8.865157117003122e+01,-2.693662920274436e+00,-1.043553838220697e+01,9.369927233612221e+01,
329,1.066666666666966e-03,2.000000000009396e-04,7.286330877378071e-06,-1.990169193908756e-05,1.745072225743475e+02,-2.190011353750252e+00,-1.264803860180883e+01,1.784987506951583e+02,
330,1.066666666667348e-03,3.000000000007048e-04,1.095106913279720e-05,-2.056027297090188e-05,2.600642962640018e+02,-1.447953956031306e+00,-1.429813189489290e+01,2.630710993588620e+02,
331,1.066666666667730e-03,4.000000000003524e-04,1.462588064837482e-05,-2.144265371266074e-05,3.454090760964085e+02,-4.678616695350968e-01,-1.542889711277543e+01,3.472507156836583e+02,
332,1.199999999997758e-03,-3.999999999996543e-04,-1.675293287040414e-05,-2.600511161636573e-05,-3.406008826287057e+02,-1.473238874166027e+00,1.161261186393706e+01,3.399220054302394e+02,
333,1.199999999998188e-03,-2.999999999993087e-04,-1.255620725360541e-05,-2.530376383775140e-05,-2.545677218013811e+02,-2.188505498453285e+00,5.847144677045003e+00,2.526500053931866e+02,
334,1.199999999998618e-03,-1.999999999990783e-04,-8.388535797406027e-06,-2.483581797968791e-05,-1.687377661691318e+02,-2.652061886327626e+00,7.361778097355938e-01,1.660922303968047e+02,
335,1.199999999999047e-03,-9.999999999896325e-05,-4.243324076808834e-06,-2.459936601168621e-05,-8.308787047067418e+01,-2.859934076033158e+00,-3.733533243941509e+00,8.057467877737416e+01,
336,1.199999999999478e-03,1.152100333537409e-15,-1.140509826928582e-07,-2.459253707529877e-05,2.380359414747378e+00,-2.816119806505043e+00,-7.569114593703379e+00,1.600529222561594e+01,
337,1.199999999999907e-03,1.000000000010368e-04,4.005741974639493e-06,-2.481344639139728e-05,8.764574990055655e+01,-2.528146663870675e+00,-1.078262902649163e+01,9.271672975522691e+01,
338,1.200000000000337e-03,2.000000000009215e-04,8.122404382614585e-06,-2.526017366801263e-05,1.726904685727126e+02,-2.003630998316034e+00,-1.339569509190904e+01,1.767365469078596e+02,
339,1.200000000000767e-03,3.000000000006912e-04,1.224213752967241e-05,-2.593080957978336e-05,2.575220652249890e+02,-1.247885835175065e+00,-1.543442508340133e+01,2.606046305849154e+02,
340,1.200000000001198e-03,4.000000000003457e-04,1.637102454122427e-05,-2.682352935118113e-05,3.421771271422850e+02,-2.621041922233527e-01,-1.691744659236683e+01,3.441067089636459e+02,
341,1.333333333330841e-03,-3.999999999996612e-04,-1.867820879082389e-05,-3.184508475930876e-05,-3.373262706750930e+02,-1.566568346203820e+00,1.300818051200558e+01,3.367661336133964e+02,
342,1.333333333331319e-03,-2.999999999993222e-04,-1.402462898761382e-05,-3.117111570285788e-05,-2.521455792040847e+02,-2.203745798504032e+00,6.889539454426596e+00,2.503213596593775e+02,
343,1.333333333331797e-03,-1.999999999990964e-04,-9.401087218512547e-06,-3.072819376804848e-05,-1.671558649339622e+02,-2.601362689394715e+00,1.430321126050630e+00,1.645793653015222e+02,
344,1.333333333332274e-03,-9.999999999898361e-05,-4.800965570251353e-06,-3.051446101220608e-05,-8.235211444412353e+01,-2.758278323503641e+00,-3.385495867994340e+00,7.988131870146437e+01,
345,1.333333333332752e-03,1.129467613186774e-15,-2.177462073290032e-07,-3.052807787699150e-05,2.266721914627141e+00,-2.677086586240112e+00,-7.572331224629187e+00,1.593116578267968e+01,
346,1.333333333333229e-03,1.000000000010165e-04,4.354996766634308e-06,-3.076721950018034e-05,8.669781789786779e+01,-2.362881397063360e+00,-1.114510437603902e+01,9.180774240287889e+01,
347,1.333333333333707e-03,2.000000000009035e-04,8.923597119239498e-06,-3.123007874539846e-05,1.709407200622020e+02,-1.821328015419962e+00,-1.412023089256488e+01,1.750549883259884e+02,
348,1.333333333334185e-03,3.000000000006775e-04,1.349430182005630e-05,-3.191488142574867e-05,2.550031781396584e+02,-1.057050301790840e+00,-1.651370463730871e+01,2.581814291402080e+02,
349,1.333333333334662e-03,4.000000000003389e-04,1.807329502293858e-05,-3.281990605450131e-05,3.389003441692554e+02,-7.284202904028803e-02,-1.833784484006513e+01,3.409515026729427e+02,
350,1.466666666663926e-03,-3.999999999996680e-04,-2.061458368942141e-05,-3.827955696879579e-05,-3.340392803266448e+02,-1.662042507099926e+00,1.436310010740645e+01,3.336162807767806e+02,
351,1.466666666664452e-03,-2.999999999993358e-04,-1.550859003489205e-05,-3.763479413867156e-05,-2.497241209654471e+02,-2.223341721647550e+00,7.903127491569730e+00,2.480049866895422e+02,
352,1.466666666664977e-03,-1.999999999991145e-04,-1.043356730077531e-05,-3.721870054065711e-05,-1.655859941436943e+02,-2.555853008209709e+00,2.101772557793109e+00,1.630843239253694e+02,
353,1.466666666665502e-03,-9.999999999900393e-05,-5.382909062183307e-06,-3.702949273396618e-05,-8.162491621389495e+01,-2.660573380543550e+00,-3.056179126056738e+00,7.920055784213413e+01,
354,1.466666666666027e-03,1.106861997890451e-15,-3.500990433478569e-07,-3.706540135095307e-05,2.160161819965298e+00,-2.539999267523408e+00,-7.585816122022439e+00,1.588300787624577e+01,
355,1.466666666666553e-03,1.000000000009962e-04,4.671292098768900e-06,-3.732467785112642e-05,8.577085087494687e+01,-2.197931064403702e+00,-1.150193633926373e+01,9.092680987532179e+01,
356,1.466666666667078e-03,2.000000000008854e-04,9.687613575145298e-06,-3.780560022303548e-05,1.692103739243346e+02,-1.638693930002619e+00,-1.481882353226664e+01,1.734006750569840e+02,
357,1.466666666667604e-03,3.000000000006640e-04,1.470514521612919e-05,-3.850647915673478e-05,2.524843532843165e+02,-8.663365077903116e-01,-1.754960332556416e+01,2.557704563190888e+02,
358,1.466666666668129e-03,4.000000000003321e-04,1.973011230550878e-05,-3.942566104879454e-05,3.355996346227411e+02,1.157807047489552e-01,-1.970551219113097e+01,3.377908303707014e+02,
359,1.599999999997010e-03,-3.999999999996747e-04,-2.256446791162594e-05,-4.530295213259712e-05,-3.307459231450509e+02,-1.765391803923293e+00,1.567382023655650e+01,3.304706712625527e+02,
360,1.599999999997583e-03,-2.999999999993493e-04,-1.701050510853283e-05,-4.468918606156128e-05,-2.472973778748756e+02,-2.250492281943027e+00,8.883689384438306e+00,2.456901623734913e+02,
361,1.599999999998157e-03,-1.999999999991325e-04,-1.148840294649115e-05,-4.430171537959299e-05,-1.640135081309238e+02,-2.517474630287355e+00,2.750779110858275e+00,1.615897149552089e+02,
362,1.599999999998729e-03,-9.999999999902418e-05,-5.991568633722812e-06,-4.413883166422447e-05,-8.089496159234186e+01,-2.568485133102778e+00,-2.739070875568990e+00,7.851781295709461e+01,
363,1.599999999999303e-03,1.084310592702753e-15,-5.134876390387714e-07,-4.419884172982591e-05,2.059101238037023e+00,-2.406139052961015e+00,-7.600199895657473e+00,1.584268047623759e+01,
364,1.599999999999876e-03,1.000000000009758e-04,4.952277132524169e-06,-4.448007302197235e-05,8.485070937465198e+01,-2.033641304467494e+00,-1.184662456522044e+01,9.005698444479111e+01,
365,1.600000000000449e-03,2.000000000008672e-04,1.041209048269995e-05,-4.498087802766190e-05,1.674829348856483e+02,-1.454536215512576e+00,-1.549168247328913e+01,1.717551689046604e+02,
366,1.600000000001022e-03,3.000000000006505e-04,1.587225267780137e-05,-4.569963675231683e-05,2.499595617064463e+02,-6.723684848467908e-01,-1.854776011415480e+01,2.533622743275370e+02,
367,1.600000000001596e-03,4.000000000003252e-04,2.133900779834805e-05,-4.663475646254233e-05,3.322842634746395e+02,3.095130187889890e-01,-2.102622636637958e+01,3.346276194833073e+02,
368,1.733333333330094e-03,-3.999999999996815e-04,-2.453019663328717e-05,-5.290974060938198e-05,-3.274474417338475e+02,-1.877791065661938e+00,1.694035860878297e+01,3.273278179980753e+02,
369,1.733333333330715e-03,-2.999999999993630e-04,-1.853269638669166e-05,-5.232871047310752e-05,-2.448645476924586e+02,-2.285496733619919e+00,9.830957389371898e+00,2.433745813696604e+02,
370,1.733333333331336e-03,-1.999999999991505e-04,-1.256791179542704e-05,-5.197160967245097e-05,-1.624353559518707e+02,-2.485932835619629e+00,3.377945166260859e+00,1.600920360586578e+02,
371,1.733333333331957e-03,-9.999999999904459e-05,-6.629258600292894e-06,-5.183680155522996e-05,-8.016009814254961e+01,-2.481677295578029e+00,-2.432188173137549e+00,7.783058025299204e+01,
372,1.733333333332578e-03,1.061704977406430e-15,-7.102234768527973e-07,-5.192266629090284e-05,1.961968286643492e+00,-2.275400334207825e+00,-7.613041623494319e+00,1.580471144542676e+01,
373,1.733333333333198e-03,1.000000000009554e-04,5.195636298591671e-06,-5.222760375133495e-05,8.393248163114967e+01,-1.870000261686879e+00,-1.217795909287526e+01,8.919235757418636e+01,
374,1.733333333333819e-03,2.000000000008492e-04,1.109469594388401e-05,-5.275003592019323e-05,1.657537337499327e+02,-1.268558142768216e+00,-1.613976952126137e+01,1.701129466851019e+02,
375,1.733333333334441e-03,3.000000000006369e-04,1.699326781638364e-05,-5.348840798791627e-05,2.474282983451515e+02,-4.742141399898703e-01,-1.951065920541942e+01,2.509548146319687e+02,
376,1.733333333335061e-03,4.000000000003186e-04,2.289760612085854e-05,-5.444118772755180e-05,3.289585770042556e+02,5.099318834516033e-01,-2.230220378851072e+01,3.314635208540886e+02,
377,1.866666666663178e-03,-3.999999999996883e-04,-2.651402741376241e-05,-6.109440058628715e-05,-3.241438055414881e+02,-1.998825839421551e+00,1.816356211252630e+01,3.241867484980027e+02,
378,1.866666666663847e-03,-2.999999999993764e-04,-2.007741139821400e-05,-6.054778996262280e-05,-2.424260962258493e+02,-2.327771509527166e+00,1.074572628861480e+01,2.410582669510917e+02,
379,1.866666666664516e-03,-1.999999999991686e-04,-1.367433580314167e-05,-6.022274846878120e-05,-1.608518317768873e+02,-2.460412175066010e+00,3.983957123779611e+00,1.585917067848652e+02,
380,1.866666666665184e-03,-9.999999999906492e-05,-7.298220436552969e-06,-6.011770852932780e-05,-7.942085287786189e+01,-2.399376275885651e+00,-2.134916735866693e+00,7.713973901838861e+01,
381,1.866666666665853e-03,1.039072257055795e-15,-9.425523898401495e-07,-6.023112025398563e-05,1.867535413315071e+00,-2.147273990414133e+00,-7.624011859791206e+00,1.576771771377267e+01,
382,1.866666666666522e-03,1.000000000009352e-04,5.399114543727422e-06,-6.056145256395406e-05,8.301457811727232e+01,-1.706788985320928e+00,-1.249621624611301e+01,8.833080847366249e+01,
383,1.866666666667191e-03,2.000000000008312e-04,1.173316184433692e-05,-6.110719425119405e-05,1.640219304078132e+02,-1.080689580592399e+00,-1.676404658440548e+01,1.684725739061772e+02,
384,1.866666666667859e-03,3.000000000006233e-04,1.806590906511933e-05,-6.186685437851927e-05,2.448914331907381e+02,-2.717905034400836e-01,-2.043958251320754e+01,2.485480082104432e+02,
385,1.866666666668528e-03,4.000000000003118e-04,2.440361666826508e-05,-6.283896182255903e-05,3.256248836439490e+02,7.170946023797331e-01,-2.353449296207792e+01,3.282994986529972e+02,
386,1.999999999996262e-03,-3.999999999996950e-04,-2.851814156251289e-05,-6.985140439293168e-05,-3.208349481999319e+02,-2.127682063946697e+00,1.934427837389704e+01,3.210469216658229e+02,
387,1.999999999996979e-03,-2.999999999993900e-04,-2.164682675948385e-05,-6.934084060108842e-05,-2.399826337938962e+02,-2.376567090883103e+00,1.162885233790523e+01,2.387416255303291e+02,
388,1.999999999997696e-03,-1.999999999991868e-04,-1.480984858443495e-05,-6.904948925906793e-05,-1.592638091466379e+02,-2.440131347361602e+00,4.569421357385161e+00,1.570897334794878e+02,
389,1.999999999998412e-03,-9.999999999908525e-05,-8.000628419176954e-06,-6.897585021926955e-05,-7.867814717702460e+01,-2.320873552239883e+00,-1.847001280629777e+00,7.644657539963994e+01,
390,1.999999999999129e-03,1.016547956922409e-15,-1.212653245589184e-06,-6.911844107851715e-05,1.774976911295758e+00,-2.021260974495455e+00,-7.633241812983225e+00,1.573139995001774e+01,
391,1.999999999999846e-03,1.000000000009148e-04,5.560525297485006e-06,-6.947579741953705e-05,8.209651965614785e+01,-1.543778128294001e+00,-1.280189738424211e+01,8.747144516936238e+01,
392,2.000000000000562e-03,2.000000000008131e-04,1.232529243961104e-05,-7.004647311543087e-05,1.622877096502712e+02,-8.909444319666164e-01,-1.736527107290669e+01,1.668337007496770e+02,
393,2.000000000001279e-03,3.000000000006098e-04,1.908797218149128e-05,-7.082904037712899e-05,2.423499371805049e+02,-6.530554348423934e-02,-2.133534156725328e+01,2.461421075397220e+02,
394,2.000000000001995e-03,4.000000000003050e-04,2.585482922557290e-05,-7.182208941356324e-05,3.222846445410602e+02,9.305882022882876e-01,-2.472377713507918e+01,3.251361101887683e+02,
395,2.133333333329346e-03,-3.999999999997018e-04,-3.054464621827267e-05,-7.917521530567608e-05,-3.175210458380554e+02,-2.263526643715752e+00,2.048319649770401e+01,3.179080822558994e+02,
396,2.133333333330110e-03,-2.999999999994035e-04,-2.324304846897559e-05,-7.870226974082047e-05,-2.375347095117469e+02,-2.431186760906222e+00,1.248101757507921e+01,2.364249767023205e+02,
397,2.133333333330874e-03,-1.999999999992048e-04,-1.597655543681847e-05,-7.844618200876043e-05,-1.576720327514795e+02,-2.424457404764814e+00,5.134812751681618e+00,1.555868723865004e+02,
398,2.133333333331639e-03,-9.999999999910558e-05,-8.738589117873619e-06,-7.840551835815065e-05,-7.793270079220406e+01,-2.245634496304005e+00,-1.568274501668621e+00,7.575202930701134e+01,
399,2.133333333332404e-03,9.939694466803983e-16,-1.522636259049416e-06,-7.857886229939403e-05,1.683799045548220e+00,-1.896995886964378e+00,-7.640881861695287e+00,1.569568077039808e+01,
400,2.133333333333167e-03,1.000000000008945e-04,5.677752843885751e-06,-7.896481448122781e-05,8.117820266373000e+01,-1.380822990736831e+00,-1.309541045647886e+01,8.661380846671929e+01,
401,2.133333333333932e-03,2.000000000007950e-04,1.286896572982424e-05,-7.956199264373852e-05,1.605514479109073e+02,-6.994124230642385e-01,-1.794400269938335e+01,1.651962133039009e+02,
402,2.133333333334696e-03,3.000000000005963e-04,2.005732928679628e-05,-8.036903149191955e-05,2.398046256707597e+02,1.449242884275730e-01,-2.219853250930536e+01,2.437373008977808e+02,
403,2.133333333335460e-03,4.000000000002982e-04,2.724911126089682e-05,-8.138458241522051e-05,3.189389286167126e+02,1.149869218750091e+00,-2.587061490471053e+01,3.219736652821672e+02,
404,2.266666666662431e-03,-3.999999999997085e-04,-3.259557618560492e-05,-8.906028797921708e-05,-3.142024938132927e+02,-2.405596771088012e+00,2.158087506285199e+01,3.147701410220812e+02,
405,2.266666666663242e-03,-2.999999999994172e-04,-2.486811186454049e-05,-8.862647668677731e-05,-2.350828189628064e+02,-2.491020668510668e+00,1.330273658359351e+01,2.341085129512045e+02,
406,2.266666666664054e-03,-1.999999999992229e-04,-1.717649229499141e-05,-8.840716999146236e-05,-1.560770492317329e+02,-2.412891350542127e+00,5.680489312466888e+00,1.540835658097635e+02,
407,2.266666666664867e-03,-9.999999999912591e-05,-9.514140016193093e-06,-8.840099977276397e-05,-7.718498542612389e+01,-2.173278539133442e+00,-1.298602647140832e+00,7.505665623674169e+01,
408,2.266666666665679e-03,9.713367263297634e-16,-1.874541739918729e-06,-8.860661439220283e-05,1.593738855382989e+00,-1.774250432381830e+00,-7.647031296710797e+00,1.566051411844439e+01,
409,2.266666666666491e-03,1.000000000008742e-04,5.748752984469964e-06,-8.902267846108242e-05,8.025966939816574e+01,-1.217881062899842e+00,-1.337704773018927e+01,8.575764020213325e+01,
410,2.266666666667303e-03,2.000000000007770e-04,1.336213311583118e-05,-8.964787266047320e-05,1.588135236386455e+02,-5.062558287963341e-01,-1.850066023616543e+01,1.635600496644900e+02,
411,2.266666666668115e-03,3.000000000005828e-04,2.097192747703638e-05,-9.048089354812369e-05,2.372561694754538e+02,3.585273069385515e-01,-2.302963573803319e+01,2.413336888084793e+02,
412,2.266666666668928e-03,4.000000000002915e-04,2.858440607454630e-05,-9.152045331465822e-05,3.155886014031952e+02,1.374360333883631e+00,-2.697550889033269e+01,3.188123297652289e+02,
413,2.399999999995515e-03,-3.999999999997154e-04,-3.467289535947258e-05,-9.950106978882464e-05,-3.108798226594383e+02,-2.553199583113820e+00,2.263779590006166e+01,3.116330946971153e+02,
414,2.399999999996376e-03,-2.999999999994307e-04,-2.652398186526020e-05,-9.910785407428381e-05,-2.326274341040838e+02,-2.555530787406278e+00,1.409441410495236e+01,2.317923439883339e+02,
415,2.399999999997235e-03,-1.999999999992410e-04,-1.841162515060164e-05,-9.892679091204027e-05,-1.544792730386976e+02,-2.405028225041272e+00,6.206726680859943e+00,1.525800437803302e+02,
416,2.399999999998095e-03,-9.999999999914621e-05,-1.032924865643855e-05,-9.895657712582226e-05,-7.643530341403557e+01,-2.103533330988581e+00,-1.037875941141027e+00,7.436074763983856e+01,
417,2.399999999998955e-03,9.487311110334407e-16,-2.270339459299204e-06,-9.919592511048735e-05,1.504675489098291e+00,-1.652899510913050e+00,-7.651753459816715e+00,1.562586330158961e+01,
418,2.399999999999815e-03,1.000000000008539e-04,5.771553106730723e-06,-9.964356259593847e-05,7.934103142885817e+01,-1.054993075470007e+00,-1.364702521001249e+01,8.490280292447005e+01,
419,2.400000000000674e-03,2.000000000007589e-04,1.380281877913846e-05,-1.002982324392997e-04,1.570742945904229e+02,-3.116949727142071e-01,-1.903557646441327e+01,1.619251753005011e+02,
420,2.400000000001534e-03,3.000000000005692e-04,2.182978765591027e-05,-1.011586924233517e-04,2.347051474456258e+02,5.750983271000258e-01,-2.382906506300007e+01,2.389313233281690e+02,
421,2.400000000002395e-03,4.000000000002847e-04,2.985873143208013e-05,-1.022237150467873e-04,3.122344131716678e+02,1.603474942969401e+00,-2.803893068319790e+01,3.156521920092907e+02,
422,2.533333333328600e-03,-3.999999999997221e-04,-3.677849782380482e-05,-1.104920021681510e-04,-3.075536282253643e+02,-2.705694484565175e+00,2.365440395271236e+01,3.084969789341008e+02,
423,2.533333333329507e-03,-2.999999999994443e-04,-2.821255346591974e-05,-1.101407892056352e-04,-2.301690180237063e+02,-2.624229412739313e+00,1.485639496244811e+01,2.294765362932138e+02,
424,2.533333333330413e-03,-1.999999999992590e-04,-1.968385004288927e-05,-1.099993780078592e-04,-1.528790485445453e+02,-2.400523016535237e+00,6.713750915371445e+00,1.510764192403917e+02,
425,2.533333333331321e-03,-9.999999999916651e-05,-1.118581242546561e-05,-1.100665296611211e-04,-7.568386289131305e+01,-2.036194406774920e+00,-7.860031240677312e-01,7.366444377617067e+01,
426,2.533333333332229e-03,9.261797058457422e-16,-2.711928551617509e-06,-1.103410198737318e-04,1.416566784162384e+00,-1.532884660856329e+00,-7.655095574274155e+00,1.559170346150830e+01,
427,2.533333333333137e-03,1.000000000008335e-04,5.744251944251456e-06,-1.108216387705897e-04,7.842243608132202e+01,-8.922553748485136e-01,-1.390551872379121e+01,8.404923607444842e+01,
428,2.533333333334044e-03,2.000000000007407e-04,1.418911904053027e-05,-1.115071907009091e-04,1.553341036587045e+02,-1.159885297722312e-01,-1.954903747046912e+01,1.602915800205773e+02,
429,2.533333333334951e-03,3.000000000005556e-04,2.262900358288819e-05,-1.123964940556611e-04,2.321520850004772e+02,7.942131827337562e-01,-2.459719768443872e+01,2.365302377873595e+02,
430,2.533333333335859e-03,4.000000000002778e-04,3.107017848318831e-05,-1.134883810922807e-04,3.088770460188551e+02,1.836625801086655e+00,-2.906133519855164e+01,3.124933030667924e+02,
431,2.666666666661684e-03,-3.999999999997289e-04,-3.891420874422639e-05,-1.220275217252474e-04,-3.042245275553973e+02,-2.862477849264472e+00,2.463113047129843e+01,3.053618433207696e+02,
432,2.666666666662639e-03,-2.999999999994577e-04,-2.993565236897839e-05,-1.217196651620649e-04,-2.277080279533424e+02,-2.696662786933080e+00,1.558899633707969e+01,2.271611359393176e+02,
433,2.666666666663594e-03,-1.999999999992771e-04,-2.099499342930884e-05,-1.216192610157600e-04,-1.512766863369180e+02,-2.399067447357407e+00,7.201762327798709e+00,1.495727479480458e+02,
434,2.666666666664548e-03,-9.999999999918684e-05,-1.208565879618383e-05,-1.217251339379519e-04,-7.493082571400433e+01,-1.971096977933774e+00,-5.429049819800786e-01,7.296780797391980e+01,
435,2.666666666665504e-03,9.035740905494194e-16,-3.201137796928384e-06,-1.220361222604325e-04,1.329409369680194e+00,-1.414185879118486e+00,-7.657099685502413e+00,1.555802099446184e+01,
436,2.666666666666460e-03,1.000000000008132e-04,5.665019125421633e-06,-1.225510778261808e-04,7.750404709320621e+01,-7.297959984705624e-01,-1.415268600669349e+01,8.319692476113124e+01,
437,2.666666666667415e-03,2.000000000007228e-04,1.451920169542831e-05,-1.232688658263417e-04,1.535932831053252e+02,8.058434610872922e-02,-2.004130707895938e+01,1.586592721465421e+02,
438,2.666666666668370e-03,3.000000000005421e-04,2.336774103483688e-05,-1.241883646462034e-04,2.295974754622394e+02,1.015440479021821e+00,-2.533439332419899e+01,2.341304607638437e+02,
439,2.666666666669326e-03,4.000000000002710e-04,3.221691084064324e-05,-1.253084657226958e-04,3.055171401480024e+02,2.073230873810180e+00,-3.004317072511143e+01,3.093356987230490e+02,
440,2.799999999994767e-03,-3.999999999997356e-04,-4.108178514821316e-05,-1.341020611437829e-04,-3.008931349494265e+02,-3.022973216366571e+00,2.556840478618309e+01,3.022277395344771e+02,
441,2.799999999995769e-03,-2.999999999994714e-04,-3.169503567651031e-05,-1.338388617024977e-04,-2.252449135023372e+02,-2.772400706401328e+00,1.629252578153862e+01,2.248461797209511e+02,
442,2.799999999996774e-03,-1.999999999992951e-04,-2.234681276297347e-05,-1.337807669944921e-04,-1.496724803980192e+02,-2.400375844165929e+00,7.670950384115820e+00,1.480690605727725e+02,
443,2.799999999997776e-03,-9.999999999920725e-05,-1.303054583778171e-05,-1.339266645234533e-04,-7.417633303487375e+01,-1.908098361555574e+00,-3.085084877874769e-01,7.227086863146128e+01,
444,2.799999999998779e-03,8.809413701987845e-16,-3.739726142133800e-06,-1.342754545574326e-04,1.243216063610895e+00,-1.296803042337023e+00,-7.657806886795695e+00,1.552480989643360e+01,
445,2.799999999999782e-03,1.000000000007928e-04,5.532094574704385e-06,-1.348260499926013e-04,7.658603268209252e+01,-5.677578403828143e-01,-1.438867807626006e+01,8.234587797282262e+01,
446,2.800000000000785e-03,2.000000000007047e-04,1.479130530929614e-05,-1.355773762205561e-04,1.518521553195013e+02,2.777372088216357e-01,-2.051264055117948e+01,1.570282710696348e+02,
447,2.800000000001788e-03,3.000000000005286e-04,2.404423701035647e-05,-1.365283710034295e-04,2.270417903578782e+02,1.238350392293402e+00,-2.604100575915344e+01,2.317320207137643e+02,
448,2.800000000002792e-03,4.000000000002643e-04,3.329716374014108e-05,-1.376779843605346e-04,3.021553080729856e+02,2.312718137670096e+00,-3.098488549176866e+01,3.061794102399275e+02,
449,2.933333333327852e-03,-3.999999999997424e-04,-4.328291665144640e-05,-1.467100499272133e-04,-2.975600505308814e+02,-3.186625752447707e+00,2.646665956717926e+01,2.990947165871775e+02,
450,2.933333333328903e-03,-2.999999999994850e-04,-3.349239260455051e-05,-1.464927560060395e-04,-2.227801141447121e+02,-2.851030564276057e+00,1.696729018205463e+01,2.225317000991513e+02,
451,2.933333333329954e-03,-1.999999999993132e-04,-2.374099717020527e-05,-1.464782210310180e-04,-1.480667149470784e+02,-2.404177176600710e+00,8.121501948167797e+00,1.465653781945525e+02,
452,2.933333333331004e-03,-9.999999999922755e-05,-1.402216286767729e-05,-1.466653946333062e-04,-7.342051728486470e+01,-1.847067934094568e+00,-8.274264922402175e-02,7.157364066017084e+01,
453,2.933333333332054e-03,8.584170700653981e-16,-4.329383358159084e-06,-1.470532383241765e-04,1.158004359466108e+00,-1.180744902289460e+00,-7.657258366534776e+00,1.549206799871565e+01,
454,2.933333333333106e-03,1.000000000007726e-04,5.343787820036515e-06,-1.476407253860229e-04,7.566855876702579e+01,-4.062882693967804e-01,-1.461364440077097e+01,8.149611501356264e+01,
455,2.933333333334156e-03,2.000000000006866e-04,1.500373847488877e-05,-1.484268407667231e-04,1.501110322953145e+02,4.751847485888909e-01,-2.096329153436435e+01,1.553986011482919e+02,
456,2.933333333335208e-03,3.000000000005149e-04,2.465679894316824e-05,-1.494105809809440e-04,2.244854840060377e+02,1.462520502604654e+00,-2.671738905634859e+01,2.293349466649311e+02,
457,2.933333333336259e-03,4.000000000002576e-04,3.430924323435703e-05,-1.505909540216592e-04,2.987921416039684e+02,2.554529064465852e+00,-3.188693132407052e+01,3.030244687152646e+02,
458,3.066666666660935e-03,-3.999999999997492e-04,-4.551922616302792e-05,-1.598459150395746e-04,-2.942258556245164e+02,-3.352899353499225e+00,2.732633274515527e+01,2.959628195146088e+02,
459,3.066666666662034e-03,-2.999999999994985e-04,-3.532934520489607e-05,-1.596757233114478e-04,-2.203140573726637e+02,-2.932154175646692e+00,1.761359963669135e+01,2.202177272750854e+02,
460,3.066666666663133e-03,-1.999999999993312e-04,-2.517916817212009e-05,-1.597059468645633e-04,-1.464596665910543e+02,-2.410210884908022e+00,8.553605283256132e+00,1.450617190805486e+02,
461,3.066666666664232e-03,-9.999999999924788e-05,-1.506213117147070e-05,-1.599355967260899e-04,-7.266350702064861e+01,-1.787881841943479e+00,1.344639108886447e-01,7.087613538170397e+01,
462,3.066666666665330e-03,8.357843497147632e-16,-4.971730767361448e-06,-1.603636949504978e-04,1.073791302213959e+00,-1.066023169674585e+00,-7.655495361067184e+00,1.545979439925992e+01,
463,3.066666666666429e-03,1.000000000007522e-04,5.098477246940059e-06,-1.609892745330709e-04,7.475178568962788e+01,-2.455334036018240e-01,-1.482773494028611e+01,8.064765814956590e+01,
464,3.066666666667528e-03,2.000000000006686e-04,1.515487904250356e-05,-1.618113793273194e-04,1.483702151537583e+02,6.726475595219146e-01,-2.139351515108312e+01,1.537702878820630e+02,
465,3.066666666668627e-03,3.000000000005014e-04,2.520380391252737e-05,-1.628290639687742e-04,2.219289954504856e+02,1.687539191747192e+00,-2.736390043628280e+01,2.269392677420921e+02,
466,3.066666666669725e-03,4.000000000002507e-04,3.525152539661842e-05,-1.640413938075013e-04,2.954282147719271e+02,2.798120762558467e+00,-3.274976523492154e+01,2.998709062441733e+02,
467,3.199999999994019e-03,-3.999999999997560e-04,-4.779227058579411e-05,-1.735040814808791e-04,-2.908911114563140e+02,-3.521275209323470e+00,2.814786787015410e+01,2.928320895106353e+02,
468,3.199999999995167e-03,-2.999999999995122e-04,-3.720744908960228e-05,-1.733821374915435e-04,-2.178471576958232e+02,-3.015386198703593e+00,1.823176874046720e+01,2.179042900225099e+02,
469,3.199999999996313e-03,-1.999999999993494e-04,-2.666288042362758e-05,-1.734582674555754e-04,-1.448516046621755e+02,-2.418224868366826e+00,8.967451646295721e+00,1.435581012538197e+02,
470,3.199999999997458e-03,-9.999999999926824e-05,-1.615200475215976e-05,-1.737315430609208e-04,-7.190542842400839e+01,-1.730420470174531e+00,3.431841036300387e-01,7.017836449103514e+01,
471,3.199999999998605e-03,8.132058394727526e-16,-5.668322003354790e-06,-1.742010461994688e-04,9.905916945944817e-01,-9.526496604211427e-01,-7.652558899018279e+00,1.542798813117311e+01,
472,3.199999999999752e-03,1.000000000007319e-04,4.794609326066545e-06,-1.748658688995716e-04,7.383586703460472e+01,-8.563531351095399e-02,-1.503110076101101e+01,7.980052925734975e+01,
473,3.200000000000897e-03,2.000000000006504e-04,1.524317333456489e-05,-1.757251132630572e-04,1.466299940465572e+02,8.698545024608304e-01,-2.180356906852809e+01,1.521433560048507e+02,
474,3.200000000002044e-03,3.000000000004879e-04,2.568369784817247e-05,-1.767778914082236e-04,2.193727492518242e+02,1.913007348900123e+00,-2.798090122002155e+01,2.245450125939670e+02,
475,3.200000000003190e-03,4.000000000002440e-04,3.612245552307192e-05,-1.780233254202740e-04,2.920640847001977e+02,3.042967058326527e+00,-3.357384977417178e+01,2.967187557226387e+02,
476,3.333333333327104e-03,-3.999999999997627e-04,-5.010354151870683e-05,-1.876789728207930e-04,-2.875563592669296e+02,-3.691251113857733e+00,2.893171381709047e+01,2.897025645111401e+02,
477,3.333333333328297e-03,-2.999999999995255e-04,-3.912819415707896e-05,-1.876063715863230e-04,-2.153798162527232e+02,-3.100353400288029e+00,1.882211667701270e+01,2.155914160019612e+02,
478,3.333333333329492e-03,-1.999999999993674e-04,-2.819362245836290e-05,-1.877295055178305e-04,-1.432427910086058e+02,-2.427974618668930e+00,9.363235659270430e+00,1.420545431972373e+02,
479,3.333333333330686e-03,-9.999999999928851e-05,-1.729327109000633e-05,-1.880475062268723e-04,-7.114640543286365e+01,-1.674567396216272e+00,5.434927595522585e-01,6.948034123195501e+01,
480,3.333333333331881e-03,7.906273292307420e-16,-6.420643783507247e-06,-1.885595147328542e-04,9.084178264537286e-01,-8.406351293883354e-01,-7.648489609449413e+00,1.539664766972871e+01,
481,3.333333333333075e-03,1.000000000007115e-04,4.430697829531001e-06,-1.892646814121504e-04,7.292094952421536e+01,7.326912415696896e-02,-1.522389406719718e+01,7.895474869788401e+01,
482,3.333333333334269e-03,2.000000000006324e-04,1.526713535253322e-05,-1.901621659520952e-04,1.448906483474585e+02,1.066543664399214e+00,-2.219371361551919e+01,1.505178287913904e+02,
483,3.333333333335464e-03,3.000000000004743e-04,2.609499473054159e-05,-1.912511373106239e-04,2.168171558253455e+02,2.138539049168841e+00,-2.856875681923280e+01,2.221522090048135e+02,
484,3.333333333336657e-03,4.000000000002372e-04,3.692054732957948e-05,-1.925307736823699e-04,2.887002916046755e+02,3.288558887191158e+00,-3.435965275071040e+01,2.935680502394536e+02,
485,3.466666666660188e-03,-3.999999999997696e-04,-5.245446596361993e-05,-2.023650117041877e-04,-2.842221208999522e+02,-3.862341127394423e+00,2.967832427039750e+01,2.865742797951563e+02,
486,3.466666666661430e-03,-2.999999999995389e-04,-4.109300531977836e-05,-2.023427983083431e-04,-2.129124207774375e+02,-3.186694334187608e+00,1.938496684081948e+01,2.132791318667337e+02,
487,3.466666666662673e-03,-1.999999999993854e-04,-2.977281743516347e-05,-2.025139840245920e-04,-1.416334797192590e+02,-2.439222908676584e+00,9.741155143323917e+00,1.405510638279041e+02,
488,3.466666666663915e-03,-9.999999999930887e-05,-1.848735190506485e-05,-2.028777596500078e-04,-7.038655943071242e+01,-1.620209066083321e+00,7.354666273555521e-01,6.878208042150762e+01,
489,3.466666666665156e-03,7.680488189887313e-16,-7.230116684943854e-06,-2.034333246188842e-04,8.272797857792753e-01,-7.299889338718479e-01,-7.643327625660907e+00,1.536577087678873e+01,
490,3.466666666666398e-03,1.000000000006912e-04,4.005323043732666e-06,-2.041798869668016e-04,7.200717334431553e+01,2.310485337720589e-01,-1.540626803405068e+01,7.811033524295465e+01,
491,3.466666666667640e-03,2.000000000006144e-04,1.522534598071240e-05,-2.051166632997043e-04,1.431524469763138e+02,1.262462593785560e+00,-2.256421151738757e+01,1.488937279863719e+02,
492,3.466666666668882e-03,3.000000000004608e-04,2.643627578760626e-05,-2.062428787683290e-04,2.142626116120893e+02,2.363761678467103e+00,-2.912783633261439e+01,2.197608836915023e+02,
493,3.466666666670125e-03,4.000000000002305e-04,3.764438214309227e-05,-2.075577670483447e-04,2.853373585384438e+02,3.534404298262256e+00,-3.510764670452934e+01,2.904188224737062e+02,
494,3.599999999993272e-03,-3.999999999997763e-04,-5.484640703660850e-05,-2.175566203357791e-04,-2.808888994532977e+02,-4.034075385942524e+00,3.038815717606643e+01,2.834472684567545e+02,
495,3.599999999994562e-03,-2.999999999995527e-04,-4.310324323358996e-05,-2.175857905274933e-04,-2.104453457325730e+02,-3.274059196645462e+00,1.992064633485189e+01,2.109674632888787e+02,
496,3.599999999995851e-03,-1.999999999994036e-04,-3.140182388479924e-05,-2.178060266946863e-04,-1.400239169294800e+02,-2.451739718024109e+00,1.010141077044767e+01,1.390476822565320e+02,
497,3.599999999997141e-03,-9.999999999932920e-05,-1.973560391955350e-05,-2.182165780814630e-04,-6.962600887762962e+01,-1.567234776219646e+00,9.191842165843731e-01,6.808359810323499e+01,
498,3.599999999998431e-03,7.454160986380964e-16,-8.098095920491786e-06,-2.188167018226653e-04,7.471858906060040e-01,-6.207190602233137e-01,-7.637112554436364e+00,1.533535511916895e+01,
499,3.599999999999720e-03,1.000000000006709e-04,3.517130981889619e-06,-2.196056629217126e-04,7.109467257025075e+01,3.875769807590501e-01,-1.557837659922079e+01,7.726730638873155e+01,
500,3.600000000001010e-03,2.000000000005963e-04,1.511645218911639e-05,-2.205827342334081e-04,1.414156487336262e+02,1.457368205392704e+00,-2.291532752305740e+01,1.472710739771245e+02,
501,3.600000000002299e-03,3.000000000004473e-04,2.670618868945808e-05,-2.217471964517925e-04,2.117094992059959e+02,2.588315803084674e+00,-2.965851203552096e+01,2.173710622242037e+02,
502,3.600000000003589e-03,4.000000000002236e-04,3.829260808851880e-05,-2.230983381031690e-04,2.819757911544662e+02,3.780028274363195e+00,-3.581830832670562e+01,2.872711042377745e+02,
503,3.733333333326356e-03,-3.999999999997831e-04,-5.728066468323544e-05,-2.332482209473848e-04,-2.775571798432376e+02,-4.205999956768308e+00,3.106167422960943e+01,2.803215617270823e+02,
504,3.733333333327694e-03,-2.999999999995662e-04,-4.516020502896172e-05,-2.333297217385700e-04,-2.079789525022332e+02,-3.362109742350224e+00,2.042948548311093e+01,2.086564349581418e+02,
505,3.733333333329032e-03,-1.999999999994216e-04,-3.308193645682223e-05,-2.335999584613795e-04,-1.384143407215956e+02,-2.465302233972180e+00,1.044420569587852e+01,1.375444175391375e+02,
506,3.733333333330370e-03,-9.999999999934950e-05,-2.103931961945478e-05,-2.340582380683683e-04,-6.886486902509911e+01,-1.515536757663872e+00,1.094725603452155e+00,6.738491117050469e+01,
507,3.733333333331707e-03,7.228646934503979e-16,-9.025872113625083e-06,-2.347038746795822e-04,6.681430692735830e-01,-5.128322687095519e-01,-7.629883475347140e+00,1.530539741850651e+01,
508,3.733333333333044e-03,1.000000000006505e-04,2.964832597273494e-06,-2.355361895732681e-04,7.018357554919548e+01,5.427337851726914e-01,-1.574037427134455e+01,7.642567873699051e+01,
509,3.733333333334383e-03,2.000000000005781e-04,1.493916623621093e-05,-2.365545111813908e-04,1.396805025987306e+02,1.651026571129771e+00,-2.324732804177572e+01,1.456498860170572e+02,
510,3.733333333335719e-03,3.000000000004337e-04,2.690344674145471e-05,-2.377581750899057e-04,2.091581874774693e+02,2.811854943447146e+00,-3.016115888834082e+01,2.149827690122913e+02,
511,3.733333333337058e-03,4.000000000002168e-04,3.886393927239012e-05,-2.391465240437777e-04,2.786160775846274e+02,4.024972487076509e+00,-3.649211791179552e+01,2.841249261811568e+02,
512,3.866666666659441e-03,-3.999999999997898e-04,-5.975847639698750e-05,-2.494342362493505e-04,-2.742274292609764e+02,-4.377676700074538e+00,3.169934041431224e+01,2.771971891776498e+02,
513,3.866666666660826e-03,-2.999999999995798e-04,-4.726512504366397e-05,-2.495689665130814e-04,-2.055135895961464e+02,-3.450519209326352e+00,2.091181740262291e+01,2.063460705767657e+02,
514,3.866666666662211e-03,-1.999999999994396e-04,-3.481438666674466e-05,-2.498901059252715e-04,-1.368049811048382e+02,-2.479694861401519e+00,1.076974523033890e+01,1.360412884887776e+02,
515,3.866666666663597e-03,-9.999999999936983e-05,-2.239972801558778e-05,-2.503970184084532e-04,-6.810325172859130e+01,-1.465010266781837e+00,1.262172250268533e+00,6.668603707133761e+01,
516,3.866666666664982e-03,7.002861832083873e-16,-1.001467207253687e-05,-2.510890743519986e-04,5.901571385608033e-01,-4.063342509833348e-01,-7.621678950778561e+00,1.527589457951316e+01,
517,3.866666666666367e-03,1.000000000006302e-04,2.347202997140582e-06,-2.519656506149555e-04,6.927400519795678e+01,6.964033200745661e-01,-1.589241596584579e+01,7.558546831400329e+01,
518,3.866666666667753e-03,2.000000000005602e-04,1.469226487173481e-05,-2.530261305334603e-04,1.379472479746259e+02,1.843212690714417e+00,-2.356048082587897e+01,1.440301824186537e+02,
519,3.866666666669138e-03,3.000000000004200e-04,2.702682807643751e-05,-2.542699039326263e-04,2.066090317106059e+02,3.034045331618008e+00,-3.063615410372665e+01,2.125960273200660e+02,
520,3.866666666670523e-03,4.000000000002101e-04,3.935715496445846e-05,-2.556963671428357e-04,2.752586884270140e+02,4.268795032131599e+00,-3.712955886785928e+01,2.809803176186138e+02,
521,3.999999999992524e-03,-3.999999999997966e-04,-6.228101794016522e-05,-2.661090898667434e-04,-2.709000975333776e+02,-4.548683117887009e+00,3.230162358833194e+01,2.740741788401482e+02,
522,3.999999999993957e-03,-2.999999999995932e-04,-4.941917555703525e-05,-2.662979009357872e-04,-2.030495928421313e+02,-3.538972231067950e+00,2.136797763877483e+01,2.040363928570008e+02,
523,3.999999999995391e-03,-1.999999999994578e-04,-3.660034364374862e-05,-2.666707977916690e-04,-1.351960600448391e+02,-2.494709212547839e+00,1.107823656493395e+01,1.345383135551706e+02,
524,3.999999999996824e-03,-9.999999999939018e-05,-2.381799540450995e-05,-2.672272005886899e-04,-6.734126534417402e+01,-1.415553650338694e+00,1.421606853723129e+00,6.598699361635522e+01,
525,3.999999999998257e-03,6.776805679120645e-16,-1.106565956370821e-05,-2.679665352694777e-04,5.132329910512157e-01,-3.012297603501111e-01,-7.612537034118951e+00,1.524684327842162e+01,
526,3.999999999999691e-03,1.000000000006099e-04,1.663080657117149e-06,-2.688882335792748e-04,6.836607922047114e+01,8.484748327015375e-01,-1.603465686868478e+01,7.474669080199607e+01,
527,4.000000000001122e-03,2.000000000005421e-04,1.437458853956845e-05,-2.699917330845503e-04,1.362161148901519e+02,2.033710282434823e+00,-2.385505470254022e+01,1.424119806959858e+02,
528,4.000000000002557e-03,3.000000000004065e-04,2.707517484639995e-05,-2.712764771958245e-04,2.040623737513678e+02,3.254565678705104e+00,-3.108387677571574e+01,2.102108592927085e+02,
529,4.000000000003990e-03,4.000000000002033e-04,3.977109877808259e-05,-2.727419151945973e-04,2.719040768340317e+02,4.511070178285866e+00,-3.773111728050072e+01,2.778373064463074e+02,
530,4.133333333325604e-03,-3.999999999998035e-04,-6.484940406667606e-05,-2.832672067604733e-04,-2.675756174197517e+02,-4.718612187997818e+00,3.286899410764080e+01,2.709525572752522e+02,
531,4.133333333327047e-03,-2.999999999996069e-04,-5.162346752550834e-05,-2.835109030260796e-04,-2.005872855695312e+02,-3.627164735477802e+00,2.179830384962989e+01,2.017274235245374e+02,
532,4.133333333328488e-03,-1.999999999994759e-04,-3.844091487903807e-05,-2.839363652925348e-04,-1.335877915243466e+02,-2.510144074855523e+00,1.136988854113156e+01,1.330355107580081e+02,
533,4.133333333329928e-03,-9.999999999941048e-05,-2.529522612954988e-05,-2.845430692081238e-04,-6.657901468873104e+01,-1.367068384728924e+00,1.573113221237383e+00,6.528779887225011e+01,
534,4.133333333331369e-03,6.550749526157418e-16,-1.217993608530975e-05,-2.853304955527137e-04,4.373747124381087e-01,-1.975227092117446e-01,-7.602495275285614e+00,1.521824012095282e+01,
535,4.133333333332810e-03,1.000000000005896e-04,9.113666357836519e-07,-2.862981302628641e-04,6.745991026724508e+01,9.988422984232557e-01,-1.616725232008000e+01,7.390936169309597e+01,
536,4.133333333334252e-03,2.000000000005239e-04,1.398504058062462e-05,-2.874454644610109e-04,1.344873241705141e+02,2.222311599875345e+00,-2.413131934515578e+01,1.407952976617571e+02,
537,4.133333333335692e-03,3.000000000003930e-04,2.704739241383790e-05,-2.887719944885993e-04,2.015185421696513e+02,3.473106962995661e+00,-3.150470755780625e+01,2.078272859838313e+02,
538,4.133333333337133e-03,4.000000000001965e-04,4.010467785002019e-05,-2.902772219430787e-04,2.685526786623158e+02,4.751388126455590e+00,-3.829728152237859e+01,2.746959191113013e+02,
539,4.266666666658682e-03,-3.999999999998102e-04,-6.746468924627596e-05,-3.009030136334051e-04,-2.642544048710280e+02,-4.887072186349194e+00,3.340192447802907e+01,2.678323496131650e+02,
540,4.266666666660132e-03,-2.999999999996203e-04,-5.387905131922454e-05,-3.012023531442467e-04,-1.981269787782308e+02,-3.714803826904554e+00,2.220313552836441e+01,1.994191833261503e+02,
541,4.266666666661582e-03,-1.999999999994939e-04,-4.033714697483815e-05,-3.016811425931161e-04,-1.319803816225397e+02,-2.525805359674235e+00,1.164491145444788e+01,1.315328976588207e+02,
542,4.266666666663031e-03,-9.999999999943079e-05,-2.683246334210622e-05,-3.023389123850731e-04,-6.581660103169713e+01,-1.319459085865592e+00,1.716776168701912e+00,6.458847111392586e+01,
543,4.266666666664481e-03,6.325235474280433e-16,-1.335854164064048e-05,-3.031751974214664e-04,3.625856551753488e-01,-9.521623900439380e-02,-7.591590720388480e+00,1.519008167317966e+01,
544,4.266666666665931e-03,1.000000000005692e-04,9.102378931948932e-08,-3.041895371352628e-04,6.655560605827884e+01,1.147404302549230e+00,-1.629035771144406e+01,7.307349638812590e+01,
545,4.266666666667380e-03,2.000000000005059e-04,1.352258643576154e-05,-3.053814755302018e-04,1.327610875893497e+02,2.408817271829630e+00,-2.438954507347099e+01,1.391801494915684e+02,
546,4.266666666668830e-03,3.000000000003795e-04,2.694244854304050e-05,-3.067505612236637e-04,1.989778524303334e+02,3.689372233992206e+00,-3.189902837638260e+01,2.054453273813395e+02,
547,4.266666666670279e-03,4.000000000001897e-04,4.035686202007929e-05,-3.082963474931621e-04,2.652049126615674e+02,4.989354779240488e+00,-3.882854189546254e+01,2.715561806089513e+02,
548,4.399999999991761e-03,-3.999999999998170e-04,-7.012786838994981e-05,-3.190109393214758e-04,-2.609368592657966e+02,-5.053686496579092e+00,3.390088902734053e+01,2.647135795795475e+02,
549,4.399999999993220e-03,-2.999999999996339e-04,-5.618691745950966e-05,-3.193666343825771e-04,-1.956689713043799e+02,-3.801607659411385e+00,2.258281374975752e+01,1.971116920415822e+02,
550,4.399999999994677e-03,-1.999999999995120e-04,-4.229002639396568e-05,-3.198994671831808e-04,-1.303740286038149e+02,-2.541506037007917e+00,1.190351688187187e+01,1.300304913565325e+02,
551,4.399999999996134e-03,-9.999999999945120e-05,-2.843068976325034e-05,-3.206090221486464e-04,-6.505412211251861e+01,-1.272633504601922e+00,1.852681433130609e+00,6.388902881569319e+01,
552,4.399999999997593e-03,6.099179321317205e-16,-1.460245551164013e-05,-3.214948875864864e-04,2.888684860303936e-01,5.687230253235143e-03,-7.579859909595669e+00,1.516236447985624e+01,
553,4.399999999999051e-03,1.000000000005489e-04,-7.989240138048193e-07,-3.225566557313227e-04,6.565326948036791e+01,1.294063938888959e+00,-1.640412839299976e+01,7.223911026076124e+01,
554,4.400000000000508e-03,2.000000000004878e-04,1.298625284878522e-05,-3.237939227934376e-04,1.310376080077401e+02,2.593036156373669e+00,-2.463000267402035e+01,1.375665517666625e+02,
555,4.400000000001965e-03,3.000000000003659e-04,2.675937259149194e-05,-3.252062890108168e-04,1.964406070679483e+02,3.903076425770786e+00,-3.226722217117427e+01,2.030650024311504e+02,
556,4.400000000003424e-03,4.000000000001830e-04,4.052668301092527e-05,-3.267933587046031e-04,2.618611806891242e+02,5.224591516901920e+00,-3.932539029661608e+01,2.684181144965384e+02,
557,4.533333333324842e-03,-3.999999999998237e-04,-7.283987757614317e-05,-3.375854151698944e-04,-2.576233636374666e+02,-5.218093412819941e+00,3.436636359415031e+01,2.615962695145293e+02,
558,4.533333333326307e-03,-2.999999999996476e-04,-5.854799735700949e-05,-3.379981329414182e-04,-1.932135499794860e+02,-3.887305299623513e+00,2.293768093579341e+01,1.948049684977984e+02,
559,4.533333333327773e-03,-1.999999999995300e-04,-4.430048020983868e-05,-3.385856802530498e-04,-1.287689230104432e+02,-2.557066059884198e+00,1.214591752365952e+01,1.285283084961228e+02,
560,4.533333333329239e-03,-9.999999999947150e-05,-3.009082844554902e-05,-3.393476948148690e-04,-6.429167216632831e+01,-1.226502508607412e+00,1.980915595265700e+00,6.318949066371232e+01,
561,4.533333333330704e-03,5.873123168353978e-16,-1.591259703245441e-05,-3.402838176258359e-04,2.162252185795213e-01,1.051859618959803e-01,-7.567338872984700e+00,1.513508507379018e+01,
562,4.533333333332170e-03,1.000000000005286e-04,-1.759392678040855e-06,-3.413936930278046e-04,6.475299867512865e+01,1.438728722051989e+00,-1.650871958757035e+01,7.140621870240142e+01,
563,4.533333333333636e-03,2.000000000004697e-04,1.237512706967797e-05,-3.426769687629105e-04,1.293170795106060e+02,2.774785205786543e+00,-2.485296323403842e+01,1.359545195055221e+02,
564,4.533333333335101e-03,3.000000000003524e-04,2.649725470157481e-05,-3.441332960342414e-04,1.939070958700090e+02,4.113946179434043e+00,-3.260967265259865e+01,2.006863290598230e+02,
565,4.533333333336565e-03,4.000000000001763e-04,4.061323360832373e-05,-3.457623295697275e-04,2.585218679367410e+02,5.456734977306168e+00,-3.978831990275944e+01,2.652817429121607e+02,
566,4.666666666657922e-03,-3.999999999998306e-04,-7.560159477763915e-05,-3.566208753945173e-04,-2.543142849007989e+02,-5.379945938047157e+00,3.479882523037585e+01,2.584804403905238e+02,
567,4.666666666659392e-03,-2.999999999996610e-04,-6.096316405030982e-05,-3.570912384902637e-04,-1.907609897950071e+02,-3.971636589336777e+00,2.326808063211493e+01,1.924990305850995e+02,
568,4.666666666660867e-03,-1.999999999995481e-04,-4.636937685677501e-05,-3.577341270544994e-04,-1.271652477571316e+02,-2.572312282481709e+00,1.237232705692856e+01,1.270263652845530e+02,
569,4.666666666662342e-03,-9.999999999949183e-05,-3.181374353498862e-05,-3.585492313474931e-04,-6.352934196047919e+01,-1.180980060200421e+00,2.101566008351117e+00,6.248987558315315e+01,
570,4.666666666663816e-03,5.647880167020114e-16,-1.728982636292506e-05,-3.595362443457007e-04,1.446572408551088e-01,2.032788728440416e-01,-7.554063124970654e+00,1.510823997955760e+01,
571,4.666666666665289e-03,1.000000000005083e-04,-2.791238665752510e-06,-3.606948618042713e-04,6.385488712059551e+01,1.581310504775084e+00,-1.660428630924286e+01,7.057483715803882e+01,
572,4.666666666666762e-03,2.000000000004517e-04,1.168835605816728e-05,-3.620247823227278e-04,1.275996875416891e+02,2.953889336492596e+00,-2.505869798462384e+01,1.343440671892471e+02,
573,4.666666666668236e-03,3.000000000003387e-04,2.615524499277640e-05,-3.635257074137391e-04,1.913775960597504e+02,4.321719665160865e+00,-3.292676407124853e+01,1.983093241947100e+02,
574,4.666666666669711e-03,4.000000000001695e-04,4.061566684201564e-05,-3.651973415749272e-04,2.551873431671262e+02,5.685436836251329e+00,-4.021782486916517e+01,2.621470865975207e+02,
575,4.799999999990998e-03,-3.999999999998373e-04,-7.841384058886492e-05,-3.761117574285528e-04,-2.510099740754904e+02,-5.538911575217975e+00,3.519875191529615e+01,2.553661118288622e+02,
576,4.799999999992481e-03,-2.999999999996746e-04,-6.343323294482448e-05,-3.766403445140287e-04,-1.883115540592294e+02,-4.054351997209899e+00,2.357435729673238e+01,1.901938952741120e+02,
577,4.799999999993963e-03,-1.999999999995662e-04,-4.849752688040646e-05,-3.773391572466977e-04,-1.255631782323964e+02,-2.587078377052995e+00,1.258295999488717e+01,1.255246775122849e+02,
578,4.799999999995443e-03,-9.999999999951215e-05,-3.360024103285419e-05,-3.782079377036930e-04,-6.276721882743745e+01,-1.135983186703708e+00,2.214720730802425e+00,6.179020276925327e+01,
579,4.799999999996927e-03,5.421552963513765e-16,-1.873494526186629e-05,-3.792464301259275e-04,7.416533685571469e-02,2.999655056674211e-01,-7.540067659423936e+00,1.508182571676912e+01,
580,4.799999999998411e-03,1.000000000004879e-04,-3.895259781834175e-06,-3.804543809885443e-04,6.295902371176956e+01,1.721725399779791e+00,-1.669098328609363e+01,6.974498115834754e+01,
581,4.799999999999892e-03,2.000000000004336e-04,1.092514568782663e-05,-3.818315390743626e-04,1.258856090366617e+02,3.130181300045694e+00,-2.524747815335623e+01,1.327352087850709e+02,
582,4.800000000001373e-03,3.000000000003252e-04,2.573255275455914e-05,-3.833776555502358e-04,1.888523724840903e+02,4.526146407593080e+00,-3.321888100038230e+01,1.959340037851373e+02,
583,4.800000000002857e-03,4.000000000001626e-04,4.053319516742722e-05,-3.850924840462738e-04,2.518579589522065e+02,5.910363586680699e+00,-4.061440004092500e+01,2.590141649192599e+02,
584,4.933333333324077e-03,-3.999999999998441e-04,-8.127737895347267e-05,-3.960525022547436e-04,-2.477107665165449e+02,-5.694672118978483e+00,3.556662228037431e+01,2.522533021175165e+02,
585,4.933333333325567e-03,-2.999999999996882e-04,-6.595896255179669e-05,-3.966398486446634e-04,-1.858654945614259e+02,-4.135212472478791e+00,2.385685609471458e+01,1.878895786333664e+02,
586,4.933333333327058e-03,-1.999999999995842e-04,-5.068568368803737e-05,-3.973951252273505e-04,-1.239628823940487e+02,-2.601204744205635e+00,1.277803155412135e+01,1.240232605746878e+02,
587,4.933333333328549e-03,-9.999999999953243e-05,-3.545106955738553e-05,-3.983181251648300e-04,-6.200538670238186e+01,-1.091431950017412e+00,2.320468462397465e+00,6.109049172426940e+01,
588,4.933333333330037e-03,5.196038911636780e-16,-2.024869785996341e-05,-3.994086432504888e-04,4.749708840980915e-03,3.952460042468449e-01,-7.525386944557873e+00,1.505583880154188e+01,
589,4.933333333331529e-03,1.000000000004676e-04,-5.072195957794199e-06,-4.006664759869473e-04,6.206549284051543e+01,1.859893702325371e+00,-1.676896488630705e+01,6.891666635162518e+01,
590,4.933333333333019e-03,2.000000000004156e-04,1.008475995086376e-05,-4.020914216667476e-04,1.241750125592421e+02,3.303501555345525e+00,-2.541957482098737e+01,1.311279577690593e+02,
591,4.933333333334510e-03,3.000000000003117e-04,2.522844564007911e-05,-4.036832804557988e-04,1.863316778028891e+02,4.726987109330208e+00,-3.348640812472610e+01,1.935603828222245e+02,
592,4.933333333336001e-03,4.000000000001559e-04,4.036508964837133e-05,-4.054418544795248e-04,2.485340519130194e+02,6.131196314817913e+00,-4.097854067589238e+01,2.558829958904373e+02,
593,5.066666666657157e-03,-3.999999999998508e-04,-8.419291789200284e-05,-4.164375547232086e-04,-2.444169821427816e+02,-5.846923440717704e+00,3.590291534538984e+01,2.491420282294803e+02,
594,5.066666666658655e-03,-2.999999999997017e-04,-6.854105522722349e-05,-4.170841529783052e-04,-1.834230517365542e+02,-4.213989295282749e+00,2.411592270329430e+01,1.855860958488125e+02,
595,5.066666666660155e-03,-1.999999999996023e-04,-5.293454429876982e-05,-4.178963904492505e-04,-1.223645208696142e+02,-2.614538423349120e+00,1.295775752466911e+01,1.225221294956682e+02,
596,5.066666666661652e-03,-9.999999999955284e-05,-3.736692110504472e-05,-4.188741106524857e-04,-6.124392616447571e+01,-1.047249417332527e+00,2.418898481070763e+00,6.039076229728315e+01,
597,5.066666666663151e-03,4.969169607044188e-16,-2.183177143212857e-05,-4.200171582230938e-04,-6.358999825455047e-02,4.891210911406230e-01,-7.510054918155511e+00,1.503027574741021e+01,
598,5.066666666664648e-03,1.000000000004473e-04,-6.322730035135288e-06,-4.213253789995695e-04,6.117437447291462e+01,1.995739811233332e+00,-1.683838504778961e+01,6.808990853637009e+01,
599,5.066666666666147e-03,2.000000000003975e-04,9.166520163769752e-06,-4.227986201112620e-04,1.224680584377343e+02,3.473698140976934e+00,-2.557525878603142e+01,1.295223271498950e+02,
600,5.066666666667646e-03,3.000000000002981e-04,2.464224886092269e-05,-4.244367300684127e-04,1.838157526800266e+02,4.924013474054197e+00,-3.372973003977865e+01,1.911884753596906e+02,
601,5.066666666669145e-03,4.000000000001490e-04,4.011067914093725e-05,-4.262395588547568e-04,2.452159429663266e+02,6.347630477960769e+00,-4.131074217802558e+01,2.527535961924910e+02,
602,5.199999999990235e-03,-3.999999999998577e-04,-8.716111022948194e-05,-4.372613638551308e-04,-2.411289256705306e+02,-5.995375274869073e+00,3.620811026438549e+01,2.460323058407995e+02,
603,5.199999999991743e-03,-2.999999999997153e-04,-7.118015791055897e-05,-4.379676643781458e-04,-1.809844548300755e+02,-4.290463924243115e+00,2.435190312126413e+01,1.832834612417064e+02,
604,5.199999999993248e-03,-1.999999999996205e-04,-5.524475009324850e-05,-4.388373177224235e-04,-1.207682470599490e+02,-2.626933003695439e+00,1.312235414635881e+01,1.210212989531520e+02,
605,5.199999999994755e-03,-9.999999999957314e-05,-3.934843181124205e-05,-4.398702170299814e-04,-6.048291447082084e+01,-1.003361625325127e+00,2.510100584866866e+00,5.969103472452721e+01,
606,5.199999999996262e-03,4.743926605710325e-16,-2.348479716914497e-05,-4.410662560681500e-04,-1.308546786625788e-01,5.815920420160161e-01,-7.494104984678176e+00,1.500513306889742e+01,
607,5.199999999997768e-03,1.000000000004270e-04,-7.647488547869656e-06,-4.424253293207558e-04,6.028574423473913e+01,2.129192155335559e+00,-1.689939721087788e+01,6.726472369770418e+01,
608,5.199999999999276e-03,2.000000000003794e-04,8.169804173994505e-06,-4.439473320818258e-04,1.207648989009169e+02,3.640626545247695e+00,-2.571480043383864e+01,1.279183294928978e+02,
609,5.200000000000780e-03,3.000000000002846e-04,2.397334438302904e-05,-4.456321605517487e-04,1.813048259733813e+02,5.117008026299388e+00,-3.394923105847037e+01,1.888182945341889e+02,
610,5.200000000002287e-03,4.000000000001424e-04,3.976934947870967e-05,-4.474797119358704e-04,2.419039375675659e+02,6.559375676739029e+00,-4.161149984138346e+01,2.496259811954338e+02,
611,5.333333333323314e-03,-3.999999999998643e-04,-9.018255432279385e-05,-4.585183831324829e-04,-2.378468868488120e+02,-6.139751001147379e+00,3.648268608162168e+01,2.429241493504685e+02,
612,5.333333333324830e-03,-2.999999999997289e-04,-7.387686286302265e-05,-4.592847947632222e-04,-1.785499220667745e+02,-4.364427844616531e+00,2.456514348907820e+01,1.809816882891013e+02,
613,5.333333333326345e-03,-1.999999999996384e-04,-5.761688756284239e-05,-4.602122775020817e-04,-1.191742072385432e+02,-2.638248530099587e+00,1.327203798850302e+01,1.195207833038637e+02,
614,5.333333333327859e-03,-9.999999999959347e-05,-4.139618271033930e-05,-4.613007733895737e-04,-5.972242559816041e+01,-9.596975485835424e-01,2.594165031880266e+00,5.899132967376688e+01,
615,5.333333333329375e-03,4.517599402203976e-16,-2.520835094844436e-05,-4.625502246172993e-04,-1.970457394073355e-01,6.726606650433187e-01,-7.477570010482191e+00,1.498040728006395e+01,
616,5.333333333330890e-03,1.000000000004066e-04,-9.047042504005200e-06,-4.639605736250554e-04,5.939967348738810e+01,2.260183112154097e+00,-1.695215425384060e+01,6.644112804374625e+01,
617,5.333333333332404e-03,2.000000000003613e-04,7.094045567798969e-06,-4.655317632003345e-04,1.190656782163855e+02,3.804149576933630e+00,-2.583846961221054e+01,1.263159769463376e+02,
618,5.333333333333920e-03,3.000000000002710e-04,2.322117012393987e-05,-4.672637365801568e-04,1.787991149314894e+02,5.305763934580916e+00,-3.414529502516696e+01,1.864498525865849e+02,
619,5.333333333335434e-03,4.000000000001356e-04,3.934054265948201e-05,-4.691564375552034e-04,2.385983259580229e+02,6.766155427942302e+00,-4.188130860422953e+01,2.465001649782393e+02,
620,5.466666666656394e-03,-3.999999999998712e-04,-9.325779478768025e-05,-4.802030707739783e-04,-2.345711406962229e+02,-6.279787426898970e+00,3.672712149782723e+01,2.398175718991498e+02,
621,5.466666666657916e-03,-2.999999999997425e-04,-7.663170840536657e-05,-4.810299613833198e-04,-1.761196608162957e+02,-4.435682411313228e+00,2.475598991334471e+01,1.786807896426501e+02,
622,5.466666666659441e-03,-1.999999999996565e-04,-6.005148905813401e-05,-4.820156461625703e-04,-1.175825406553815e+02,-2.648351410990328e+00,1.340702583584856e+01,1.180205966105830e+02,
623,5.466666666660964e-03,-9.999999999961374e-05,-4.351070049480022e-05,-4.831601153255458e-04,-5.896253028225934e+01,-9.161890658074165e-01,2.671182485511223e+00,5.829166829059169e+01,
624,5.466666666662486e-03,4.291814299783869e-16,-2.700295410385181e-05,-4.844633587817293e-04,-2.621650831657369e-01,7.623292753869162e-01,-7.460482322886707e+00,1.495609489977669e+01,
625,5.466666666664011e-03,1.000000000003863e-04,-1.052190816584890e-05,-4.859253662388348e-04,5.851622941218462e+01,2.388648933046903e+00,-1.699680843204942e+01,6.561913804634459e+01,
626,5.466666666665532e-03,2.000000000003433e-04,5.938732879459847e-06,-4.875461273076502e-04,1.173705328309591e+02,3.964137236284536e+00,-2.594653551100757e+01,1.247152812684625e+02,
627,5.466666666667055e-03,3.000000000002575e-04,2.238521915155636e-05,-4.893256316090956e-04,1.762988253831872e+02,5.490084827310677e+00,-3.431830513866775e+01,1.840831608829216e+02,
628,5.466666666668578e-03,4.000000000001288e-04,3.882375603361876e-05,-4.912638688834701e-04,2.352993834113973e+02,6.967706934429522e+00,-4.212066281447402e+01,2.433761603495813e+02,
629,5.599999999989473e-03,-3.999999999998780e-04,-9.638732322522214e-05,-5.023098899974496e-04,-2.313019477385216e+02,-6.415234566333003e+00,3.694189464645801e+01,2.367125853892653e+02,
630,5.599999999991005e-03,-2.999999999997559e-04,-7.944517965496012e-05,-5.031975870801972e-04,-1.736938677670318e+02,-4.504038695886465e+00,2.492478829996177e+01,1.763807771507854e+02,
631,5.599999999992536e-03,-1.999999999996747e-04,-6.254903353654980e-05,-5.042418062575339e-04,-1.159933796403672e+02,-2.657114323563284e+00,1.352753457673680e+01,1.165207526703300e+02,
632,5.599999999994066e-03,-9.999999999963413e-05,-4.569245827332064e-05,-5.054425851934030e-04,-5.820329605662947e+01,-8.727709242053177e-01,2.741243959340427e+00,5.759207224729805e+01,
633,5.599999999995598e-03,4.065758146820642e-16,-2.886907419417690e-05,-5.067999608104866e-04,-3.262150820083809e-01,8.506006751078523e-01,-7.442873706544102e+00,1.493219245028871e+01,
634,5.599999999997128e-03,1.000000000003660e-04,-1.207254782898701e-05,-5.083139693977873e-04,5.763547509074694e+01,2.514529664607293e+00,-1.703351131967568e+01,6.479877048356352e+01,
635,5.599999999998660e-03,2.000000000003252e-04,4.703408801942207e-06,-5.099846467203785e-04,1.156795915065093e+02,4.120466582781296e+00,-2.603926654881700e+01,1.231162538552458e+02,
636,5.600000000000190e-03,3.000000000002439e-04,2.146503888452280e-05,-5.118120281312558e-04,1.738041519360258e+02,5.669784614233514e+00,-3.446864378224299e+01,1.817182299370319e+02,
637,5.600000000001720e-03,4.000000000001220e-04,3.821854149419887e-05,-5.137961486852843e-04,2.320073704837608e+02,7.163780855857643e+00,-4.233005600365126e+01,2.402539788678846e+02,
638,5.733333333322551e-03,-3.999999999998848e-04,-9.957157894766441e-05,-5.248333092688434e-04,-2.280395542492748e+02,-6.545855420938977e+00,3.712748287986383e+01,2.336092005051082e+02,
639,5.733333333324091e-03,-2.999999999997696e-04,-8.231770926205694e-05,-5.257821005353181e-04,-1.712727290939309e+02,-4.569317328560047e+00,2.507188419362886e+01,1.740816618782396e+02,
640,5.733333333325632e-03,-1.999999999996926e-04,-6.510994730901943e-05,-5.268851467664951e-04,-1.144068497094332e+02,-2.664416121027188e+00,1.363378109730692e+01,1.150212650438886e+02,
641,5.733333333327172e-03,-9.999999999965446e-05,-4.794187632782272e-05,-5.281425323553800e-04,-5.744478729442029e+01,-8.293807051872895e-01,2.804440765585976e+00,5.689256379611389e+01,
642,5.733333333328709e-03,3.840244094943657e-16,-3.080712577048440e-05,-5.295543405349946e-04,-3.891985584787268e-01,9.374781301016633e-01,-7.424775403115493e+00,1.490869646155753e+01,
643,5.733333333330251e-03,1.000000000003457e-04,-1.369937059979187e-05,-5.311206534905460e-04,5.675746958686656e+01,2.637769071779767e+00,-1.706241375374487e+01,6.398004248403259e+01,
644,5.733333333331789e-03,2.000000000003071e-04,3.387669399198878e-06,-5.328415524736494e-04,1.139929754613381e+02,4.273021605133382e+00,-2.611693026409781e+01,1.215189057714341e+02,
645,5.733333333333329e-03,3.000000000002304e-04,2.046023029439282e-05,-5.347171179185746e-04,1.713152781687048e+02,5.844687302073438e+00,-3.459669236139260e+01,1.793550694325295e+02,
646,5.733333333334867e-03,4.000000000001152e-04,3.752450466909389e-05,-5.367474295604788e-04,2.287225332604080e+02,7.354141075355008e+00,-4.250998067191853e+01,2.371336308613837e+02,
647,5.866666666655632e-03,-3.999999999998914e-04,-1.028109497034629e-04,-5.477678025380297e-04,-2.247841924899032e+02,-6.671425757853759e+00,3.728436256406235e+01,2.305074267322925e+02,
648,5.866666666657180e-03,-2.999999999997832e-04,-8.524967814510174e-05,-5.487779365043135e-04,-1.688564206317072e+02,-4.631348341469904e+00,2.519762262513948e+01,1.717834541292305e+02,
649,5.866666666658728e-03,-1.999999999997108e-04,-6.773460478549847e-05,-5.499400633280466e-04,-1.128230696670013e+02,-2.670141734548755e+00,1.372598218005926e+01,1.135221470873473e+02,
650,5.866666666660276e-03,-9.999999999967481e-05,-5.025932286915450e-05,-5.512543134124648e-04,-5.668706524636239e+01,-7.859587872530636e-01,2.860864464325272e+00,5.619316582366250e+01,
651,5.866666666661823e-03,3.613916891437308e-16,-3.281747114192852e-05,-5.527208156000021e-04,-4.511187646105581e-01,1.022965346853137e+00,-7.406218109592528e+00,1.488560347164652e+01,
652,5.866666666663370e-03,1.000000000003253e-04,-1.540273317134417e-05,-5.543396972886233e-04,5.588226802583716e+01,2.758314559095782e+00,-1.708366578331691e+01,6.316297157608083e+01,
653,5.866666666664919e-03,2.000000000002891e-04,1.991163320229870e-06,-5.561110845501289e-04,1.123107985098245e+02,4.421693091437261e+00,-2.617979321097678e+01,1.199232477806447e+02,
654,5.866666666666466e-03,3.000000000002168e-04,1.937044710969581e-05,-5.580351022503830e-04,1.688323768288120e+02,6.014626814267993e+00,-3.470283114946063e+01,1.769936882460796e+02,
655,5.866666666668013e-03,4.000000000001084e-04,3.674130411510100e-05,-5.601118741714510e-04,2.254451036082926e+02,7.538564469455316e+00,-4.266092808283688e+01,2.340151254492358e+02,
656,5.999999999988711e-03,-3.999999999998983e-04,-1.061057724014036e-04,-5.711078494616209e-04,-2.215360809483674e+02,-6.791733886027531e+00,3.741300888390709e+01,2.274072723776000e+02,
657,5.999999999990266e-03,-2.999999999997966e-04,-8.824141622496340e-05,-5.721795360383459e-04,-1.664451080455371e+02,-4.689971009883800e+00,2.530234796479924e+01,1.694861634693231e+02,
658,5.999999999991822e-03,-1.999999999997289e-04,-7.042332921926352e-05,-5.734009584598722e-04,-1.112421517135593e+02,-2.674182078988271e+00,1.380435440592727e+01,1.120234119853119e+02,
659,5.999999999993378e-03,-9.999999999969511e-05,-5.264511479139263e-05,-5.747722924231604e-04,-5.593018808790701e+01,-7.424483127531332e-01,2.910606814753000e+00,5.549390191372785e+01,
660,5.999999999994933e-03,3.388944940646565e-16,-3.490042114001837e-05,-5.762937116811575e-04,-5.119793593280484e-01,1.107066453233882e+00,-7.387231977925634e+00,1.486291002885783e+01,
661,5.999999999996490e-03,1.000000000003050e-04,-1.718294059761565e-05,-5.779653881628962e-04,5.500992167865584e+01,2.876117095344948e+00,-1.709741661828914e+01,6.234757573802086e+01,
662,5.999999999998043e-03,2.000000000002710e-04,5.135910150126243e-07,-5.797874920954792e-04,1.106331671992328e+02,4.566378496120608e+00,-2.622812086190056e+01,1.183292903789105e+02,
663,5.999999999999600e-03,3.000000000002033e-04,1.819539502204297e-05,-5.817601921279157e-04,1.663556100265947e+02,6.179446806573599e+00,-3.478743914044042e+01,1.746340944709430e+02,
664,6.000000000001156e-03,4.000000000001017e-04,3.586865051426604e-05,-5.838836554567853e-04,2.221752994247472e+02,7.716840674472132e+00,-4.278338806763312e+01,2.308984705616869e+02,
665,6.133333333321789e-03,-3.999999999999051e-04,-1.094563338337061e-04,-5.948479356129909e-04,-2.182954245837357e+02,-6.906580436136672e+00,3.751389565822511e+01,2.243087445907598e+02,
666,6.133333333323353e-03,-2.999999999998101e-04,-9.129320315795950e-05,-5.959813466925993e-04,-1.640389470041137e+02,-4.745033694428653e+00,2.538640378300366e+01,1.671897987487522e+02,
667,6.133333333324916e-03,-1.999999999997469e-04,-7.317639344983023e-05,-5.972622417657938e-04,-1.096642015520994e+02,-2.676433956880326e+00,1.386911406155117e+01,1.105250727863043e+02,
668,6.133333333326479e-03,-9.999999999971542e-05,-5.509951842462163e-05,-5.986908411091802e-04,-5.517421095547440e+01,-6.987951485829020e-01,2.953759729281379e+00,5.479479640884727e+01,
669,6.133333333328044e-03,3.162617737140216e-16,-3.705623588120826e-05,-6.002673626894497e-04,-5.717843907044848e-01,1.189785974929942e+00,-7.367846614890819e+00,1.484061269339355e+01,
670,6.133333333329606e-03,1.000000000002847e-04,-1.904024706581492e-05,-6.019920222868518e-04,5.414047803822983e+01,2.991131134290288e+00,-1.710381458416450e+01,6.153387345208704e+01,
671,6.133333333331172e-03,2.000000000002529e-04,-1.045296047564385e-06,-6.038650336204937e-04,1.089601809512702e+02,4.706981810994311e+00,-2.626217751363457e+01,1.167370438293374e+02,
672,6.133333333332735e-03,3.000000000001898e-04,1.693483089438315e-05,-6.058866084754035e-04,1.638851294314984e+02,6.339000485057904e+00,-3.485089390915713e+01,1.722762954415893e+02,
673,6.133333333334297e-03,4.000000000000949e-04,3.490630587250054e-05,-6.080569568313641e-04,2.189133248871187e+02,7.888771853323501e+00,-4.287784883867244e+01,2.277836729602041e+02,
674,6.266666666654870e-03,-3.999999999999119e-04,-1.128628713979620e-04,-6.189825526797001e-04,-2.150624150647768e+02,-7.015778136263776e+00,3.758749516193429e+01,2.212118493830252e+02,
675,6.266666666656441e-03,-2.999999999998237e-04,-9.440526906757505e-05,-6.201778227220814e-04,-1.616380833548319e+02,-4.796393683719206e+00,2.545013271709669e+01,1.648943681274802e+02,
676,6.266666666658012e-03,-1.999999999997650e-04,-7.599402064439751e-05,-6.215183301300512e-04,-1.080893184933574e+02,-2.676799960437828e+00,1.392047705003868e+01,1.090271424401085e+02,
677,6.266666666659586e-03,-9.999999999973577e-05,-5.762275028605714e-05,-6.230043390482967e-04,-5.441918598951547e+01,-6.549478489672689e-01,2.990415228711212e+00,5.409587448035210e+01,
678,6.266666666661157e-03,2.936561584176989e-16,-3.928512552766177e-05,-6.246361109626979e-04,-6.305382735861285e-01,1.271128816420138e+00,-7.348091082416704e+00,1.481870803893445e+01,
679,6.266666666662729e-03,1.000000000002643e-04,-2.097485666677886e-05,-6.264139048268153e-04,5.327398090722826e+01,3.103314542396474e+00,-1.710300707667273e+01,6.072188376318816e+01,
680,6.266666666664303e-03,2.000000000002348e-04,-2.685696159648655e-06,-6.283379771901269e-04,1.072919322002455e+02,4.843413434353103e+00,-2.628222619881742e+01,1.151465181982878e+02,
681,6.266666666665874e-03,3.000000000001762e-04,1.558856197152643e-05,-6.304085823279726e-04,1.614210764666261e+02,6.493150423262315e+00,-3.489357147874563e+01,1.699202977582941e+02,
682,6.266666666667446e-03,4.000000000000881e-04,3.385408272062371e-05,-6.326259723732079e-04,2.156593707044727e+02,8.054172463588756e+00,-4.294479681324620e+01,2.246707382592595e+02,
683,6.399999999987949e-03,-3.999999999999186e-04,-1.163255738178359e-04,-6.435061986485067e-04,-2.118372310140244e+02,-7.119151590387855e+00,3.763427795926393e+01,2.181165916498856e+02,
684,6.399999999989528e-03,-2.999999999998373e-04,-9.757779527475537e-05,-6.447634252649393e-04,-1.592426532937178e+02,-4.843917033378849e+00,2.549387634569633e+01,1.625998790999191e+02,
685,6.399999999991107e-03,-1.999999999997831e-04,-7.887638503770546e-05,-6.461636478990144e-04,-1.065175955630405e+02,-2.675188374797088e+00,1.395865880697909e+01,1.075296338383404e+02,
686,6.399999999992689e-03,-9.999999999975611e-05,-6.021497782943459e-05,-6.477071738545350e-04,-5.366516238171706e+01,-6.108576215703891e-01,3.020665399076384e+00,5.339716220357811e+01,
687,6.399999999994268e-03,2.711047532300004e-16,-4.158725104614227e-05,-6.493943074443239e-04,-6.882457697631743e-01,1.351100240593271e+00,-7.327993898472363e+00,1.479719265449192e+01,
688,6.399999999995850e-03,1.000000000002440e-04,-2.298692416329484e-05,-6.512253501193665e-04,5.241047046762981e+01,3.212628516086015e+00,-1.709514052202416e+01,5.991162633880083e+01,
689,6.399999999997429e-03,2.000000000002168e-04,-4.407758152168944e-06,-6.532006005996357e-04,1.056285065295210e+02,4.975590039483295e+00,-2.628852860317643e+01,1.135577233940106e+02,
690,6.399999999999010e-03,3.000000000001627e-04,1.415644509303888e-05,-6.553203550065831e-04,1.589635825061010e+02,6.641768381102275e+00,-3.491584619497114e+01,1.675661073140216e+02,
691,6.400000000000589e-03,4.000000000000813e-04,3.271184331792473e-05,-6.575849069972645e-04,2.124136143664046e+02,8.212869024153083e+00,-4.298471644539031e+01,2.215596709464371e+02,
692,6.533333333321028e-03,-3.999999999999253e-04,-1.198445818623858e-04,-6.684133779781754e-04,-2.086200382449128e+02,-7.216537054219101e+00,3.765471274489666e+01,2.150229751897980e+02,
693,6.533333333322615e-03,-2.999999999998508e-04,-1.008109150266716e-04,-6.697326225134963e-04,-1.568527835387077e+02,-4.887478407840208e+00,2.551797506851133e+01,1.603063385206783e+02,
694,6.533333333324202e-03,-1.999999999998011e-04,-8.182361267020367e-05,-6.711926270505424e-04,-1.049491196090851e+02,-2.671513081014249e+00,1.398387421916148e+01,1.060325598569619e+02,
695,6.533333333325791e-03,-9.999999999977643e-05,-6.287632019254485e-05,-6.727937413459487e-04,-5.291218641136653e+01,-5.664782853963839e-01,3.044602351279472e+00,5.269868663561667e+01,
696,6.533333333327380e-03,2.484991379336776e-16,-4.396272496486627e-05,-6.745363118496191e-04,-7.449119712918408e-01,1.429705847242764e+00,-7.307583038436688e+00,1.477606314656507e+01,
697,6.533333333328969e-03,1.000000000002237e-04,-2.507655575625498e-05,-6.764206818361809e-04,5.154998336920661e+01,3.319037511936143e+00,-1.708036033670565e+01,5.910312153527751e+01,
698,6.533333333330558e-03,2.000000000001987e-04,-6.211582170239484e-06,-6.784471915380707e-04,1.039699828138958e+02,5.103434448034869e+00,-2.628134498655156e+01,1.119706692084479e+02,
699,6.533333333332144e-03,3.000000000001491e-04,1.263838590860768e-05,-6.806161782802306e-04,1.565127690669210e+02,6.784735121192030e+00,-3.491809060739818e+01,1.652137293202936e+02,
700,6.533333333333733e-03,4.000000000000746e-04,3.147949885835622e-05,-6.829279766163998e-04,2.091762203932589e+02,8.364699883222299e+00,-4.299809006730030e+01,2.184504744039150e+02,
701,6.666666666654107e-03,-3.999999999999322e-04,-1.234199890639378e-04,-6.936986017602602e-04,-2.054109900061102e+02,-7.307782214701063e+00,3.764926619296904e+01,2.119310027266478e+02,
702,6.666666666655704e-03,-2.999999999998645e-04,-1.041047142238587e-04,-6.950798898731922e-04,-1.544685915039666e+02,-4.926960921908673e+00,2.552276799273405e+01,1.580137526330680e+02,
703,6.666666666657299e-03,-1.999999999998191e-04,-8.483578212442857e-05,-6.965997073511779e-04,-1.033839714084371e+02,-2.665693458736100e+00,1.399633754928163e+01,1.045359334024763e+02,
704,6.666666666658895e-03,-9.999999999979676e-05,-6.560684894281297e-05,-6.982584457001518e-04,-5.216030149398284e+01,-5.217662364512305e-01,3.062318181380777e+00,5.200047590281646e+01,
705,6.666666666660489e-03,2.259206276916670e-16,-4.641161212826266e-05,-7.000564928196990e-04,-8.005422790211094e-01,1.506951554973893e+00,-7.286885935977953e+00,1.475531613926784e+01,
706,6.666666666662087e-03,1.000000000002033e-04,-2.724380984855319e-05,-7.019942331364902e-04,5.069255280550821e+01,3.422509169245149e+00,-1.705881089196386e+01,5.829639046772410e+01,
707,6.666666666663683e-03,2.000000000001806e-04,-8.097220446159042e-06,-7.040720477393060e-04,1.023164333524138e+02,5.226875497720956e+00,-2.626093410820148e+01,1.103853653586423e+02,
708,6.666666666665278e-03,3.000000000001356e-04,1.103433809598009e-05,-7.062903145156294e-04,1.540687480048213e+02,6.921940229144161e+00,-3.490067535794221e+01,1.628631683356737e+02,
709,6.666666666666875e-03,4.000000000000678e-04,3.015700867943262e-05,-7.086494082897809e-04,2.059473405869642e+02,8.509514988177695e+00,-4.298539773972456e+01,2.153431509301982e+02,
710,6.799999999987186e-03,-3.999999999999390e-04,-1.270518424344048e-04,-7.193563878680699e-04,-2.022102272195042e+02,-7.392745967313876e+00,3.761840281675334e+01,2.088406759311547e+02,
711,6.799999999988791e-03,-2.999999999998779e-04,-1.074592321456437e-04,-7.207997101096432e-04,-1.520901854721825e+02,-4.962255982713491e+00,2.550859282598658e+01,1.557221270972949e+02,
712,6.799999999990397e-03,-1.999999999998372e-04,-8.791292525951329e-05,-7.223793365013879e-04,-1.018222257740144e+02,-2.657654288399772e+00,1.399626236175321e+01,1.030397674605377e+02,
713,6.799999999992000e-03,-9.999999999981711e-05,-6.840658882086028e-05,-7.240956995978344e-04,-5.140954822100810e+01,-4.766804070114814e-01,3.073904933862331e+00,5.130255929218099e+01,
714,6.799999999993605e-03,2.033150123953442e-16,-4.893393044954106e-05,-7.259492280633791e-04,-8.551423855716926e-01,1.582843581416318e+00,-7.265929485669322e+00,1.473494827741536e+01,
715,6.799999999995209e-03,1.000000000001830e-04,-2.948869780663101e-05,-7.279403468073893e-04,4.983820859032573e+01,3.523014233981423e+00,-1.703063548028214e+01,5.749145508434212e+01,
716,6.799999999996816e-03,2.000000000001626e-04,-1.006467806990290e-05,-7.300694771208639e-04,1.006679240063095e+02,5.345847914484383e+00,-2.622755315848504e+01,1.088018215342939e+02,
717,6.799999999998418e-03,3.000000000001219e-04,9.344302581557851e-06,-7.323370368146049e-04,1.516316217065893e+02,7.053281931729675e+00,-3.486396907478154e+01,1.605144282942940e+02,
718,6.800000000000023e-03,4.000000000000610e-04,2.874437947394569e-05,-7.347434403589187e-04,2.027271142753287e+02,8.647175651297951e+00,-4.294711711040258e+01,2.122377017607524e+02,
719,6.933333333320265e-03,-3.999999999999456e-04,-1.307401431799706e-04,-7.453812610940051e-04,-1.990178787217202e+02,-7.471298196479041e+00,3.756258483385460e+01,2.057519954423645e+02,
720,6.933333333321879e-03,-2.999999999998916e-04,-1.108744621737756e-04,-7.468865734840044e-04,-1.497176647651383e+02,-4.993263129969303e+00,2.547578577523499e+01,1.534314670206876e+02,
721,6.933333333323492e-03,-1.999999999998553e-04,-9.105502794371879e-05,-7.485259702690548e-04,-1.002639516625246e+02,-2.647325654854279e+00,1.398386145617891e+01,1.015440751497782e+02,
722,6.933333333325103e-03,-9.999999999983742e-05,-7.127551848191541e-05,-7.502999243544624e-04,-5.065996440420884e+01,-4.311822282317852e-01,3.079454566161875e+00,5.060496735086361e+01,
723,6.933333333326715e-03,1.807636072076457e-16,-5.152965166096432e-05,-7.522089044871646e-04,-9.087182557054572e-01,1.657388424864085e+00,-7.244740044268587e+00,1.471495622596883e+01,
724,6.933333333328328e-03,1.000000000001627e-04,-3.181118471957826e-05,-7.542533753922024e-04,4.898697723836242e+01,3.620526486617942e+00,-1.699597628380768e+01,5.668833824667530e+01,
725,6.933333333329942e-03,2.000000000001445e-04,-1.211391375702896e-05,-7.564337979107142e-04,9.902451433893907e+01,5.460292187666958e+00,-2.618145769285550e+01,1.072200474466586e+02,
726,6.933333333331555e-03,3.000000000001084e-04,7.568326763735508e-06,-7.587506291394165e-04,1.492014832850842e+02,7.178666919118101e+00,-3.480833827416855e+01,1.581675125370464e+02,
727,6.933333333333166e-03,4.000000000000542e-04,2.724166450457835e-05,-7.612043225715636e-04,1.995156685621703e+02,8.777554321766964e+00,-4.288372328139437e+01,2.091341270904535e+02,
728,7.066666666653344e-03,-3.999999999999524e-04,-1.344848474140499e-04,-7.717677532754561e-04,-1.958340614969136e+02,-7.543319551885661e+00,3.748227204140463e+01,2.026649608880444e+02,
729,7.066666666654963e-03,-2.999999999999051e-04,-1.143503525141554e-04,-7.733349778768478e-04,-1.473511199194096e+02,-5.019889880860988e+00,2.542468145133205e+01,1.511417769906556e+02,
730,7.066666666656584e-03,-1.999999999998733e-04,-9.426203078493154e-05,-7.750340726114140e-04,-9.870921227797253e+01,-2.634642847514876e+00,1.395934680135150e+01,1.000488697773715e+02,
731,7.066666666658206e-03,-9.999999999985773e-05,-7.421357123504041e-05,-7.768655500403705e-04,-4.991158512153538e+01,-3.852355924837285e-01,3.079058914274319e+00,4.990773199479298e+01,
732,7.066666666659827e-03,1.580495716940744e-16,-5.419870206177196e-05,-7.788299183135802e-04,-9.612761115556392e-01,1.730592845023271e+00,-7.223343434847197e+00,1.469533667495895e+01,
733,7.066666666661447e-03,1.000000000001423e-04,-3.421119015572965e-05,-7.809276813071165e-04,4.813888204178271e+01,3.715022667779058e+00,-1.695497434492751e+01,5.588706381471344e+01,
734,7.066666666663068e-03,2.000000000001264e-04,-1.424484061389662e-05,-7.831593387623063e-04,9.738625774460894e+01,5.570154437786432e+00,-2.612290157160674e+01,1.056400528801861e+02,
735,7.066666666664691e-03,3.000000000000948e-04,5.706503739052401e-06,-7.855253864262366e-04,1.467784167664567e+02,7.298010162819290e+00,-3.473414726757455e+01,1.558224238418151e+02,
736,7.066666666666310e-03,4.000000000000475e-04,2.564896282146469e-05,-7.880263161937039e-04,1.963131185738705e+02,8.900534356982245e+00,-4.279568868460591e+01,2.060324260955325e+02,
737,7.199999999986423e-03,-3.999999999999593e-04,-1.382858668684418e-04,-7.985104034094611e-04,-1.926588809225806e+02,-7.608701234752671e+00,3.737792169884376e+01,1.995795709099430e+02,
738,7.199999999988054e-03,-2.999999999999185e-04,-1.178868069166237e-04,-8.001394289007341e-04,-1.449906328493367e+02,-5.042051567846816e+00,2.535561277936851e+01,1.488530611051411e+02,
739,7.199999999989682e-03,-1.999999999998915e-04,-9.753382985903578e-05,-8.018981157856409e-04,-9.715806518370934e+01,-2.619546267082076e+00,1.392292947420806e+01,9.855416490196940e+01,
740,7.199999999991309e-03,-9.999999999987807e-05,-7.722063578007642e-05,-8.037870155894401e-04,-4.916444275728421e+01,-3.388068127789241e-01,3.072809661032397e+00,4.921088662315589e+01,
741,7.199999999992939e-03,1.355523766150002e-16,-5.694096326366991e-05,-8.058066751880274e-04,-1.012822412187397e+00,1.802463845973665e+00,-7.201764947569478e+00,1.467608633647105e+01,
742,7.199999999994565e-03,1.000000000001220e-04,-3.668858891666236e-05,-8.079576369463048e-04,4.729394314627321e+01,3.806482405293838e+00,-1.690776954053439e+01,5.508765673943222e+01,
743,7.199999999996196e-03,2.000000000001084e-04,-1.645732690016997e-05,-8.102404388580140e-04,9.575320158908998e+01,5.675386295543705e+00,-2.605213690352522e+01,1.040618477493953e+02,
744,7.199999999997824e-03,3.000000000000813e-04,3.758971531242439e-06,-8.126556146869928e-04,1.443624972841001e+02,7.411234740384296e+00,-3.464175807497332e+01,1.534791644569962e+02,
745,7.199999999999455e-03,4.000000000000406e-04,2.396641848282652e-05,-8.152036941098749e-04,1.931195677038696e+02,9.016009793525956e+00,-4.268348296519159e+01,2.029325969562467e+02,
746,7.333333333319502e-03,-3.999999999999660e-04,-1.421430696026304e-04,-8.256037577563075e-04,-1.894924309980489e+02,-7.667344774518540e+00,3.724998841788873e+01,1.964958231839182e+02,
747,7.333333333321141e-03,-2.999999999999322e-04,-1.214836853926988e-04,-8.272944400016856e-04,-1.426362770275855e+02,-5.059671188673954e+00,2.526891091555356e+01,1.465653230119183e+02,
748,7.333333333322777e-03,-1.999999999999096e-04,-1.008702774360922e-04,-8.291125804482822e-04,-9.561056240313316e+01,-2.601981325585717e+00,1.387481960380577e+01,9.705997439836533e+01,
749,7.333333333324413e-03,-9.999999999989842e-05,-8.029655694222506e-05,-8.310587688965872e-04,-4.841856704900473e+01,-2.918645857086677e-01,3.060798305955148e+00,4.851446624533325e+01,
750,7.333333333326051e-03,1.129196562643653e-16,-5.975627293379950e-05,-8.331335902743986e-04,-1.063363837946311e+00,1.873008658592824e+00,-7.180029344777063e+00,1.465720195009506e+01,
751,7.333333333327688e-03,1.000000000001017e-04,-3.924321178854011e-05,-8.353376247757409e-04,4.645217762771237e+01,3.894888142308234e+00,-1.685450055672977e+01,5.429014316072213e+01,
752,7.333333333329325e-03,2.000000000000902e-04,-1.875119678849624e-05,-8.376714480012247e-04,9.412538733815371e+01,5.775944772629532e+00,-2.596941399335534e+01,1.024854421577620e+02,
753,7.333333333330964e-03,3.000000000000677e-04,1.725912323250512e-06,-8.401356310998145e-04,1.419537912689372e+02,7.518271659114746e+00,-3.453153034538321e+01,1.511377361374036e+02,
754,7.333333333332599e-03,4.000000000000339e-04,2.219421977867551e-05,-8.427307409120030e-04,1.899351078545517e+02,9.123885119851593e+00,-4.254757287304659e+01,1.998346368785106e+02,
755,7.466666666652581e-03,-3.999999999999728e-04,-1.460562807111318e-04,-8.530423699322820e-04,-1.863347945854135e+02,-7.719161816099340e+00,3.709892406059573e+01,1.934137144449635e+02,
756,7.466666666654226e-03,-2.999999999999458e-04,-1.251408049312295e-04,-8.547945325497607e-04,-1.402881176470940e+02,-5.072679245406928e+00,2.516490516867219e+01,1.442785659436408e+02,
757,7.466666666655873e-03,-1.999999999999276e-04,-1.042711827042616e-04,-8.566719557437442e-04,-9.406675053023059e+01,-2.581898352305767e+00,1.381522631586963e+01,9.556631253036578e+01,
758,7.466666666657516e-03,-9.999999999991870e-05,-8.344113640424047e-05,-8.586752669042400e-04,-4.767398512822302e+01,-2.443799506704725e-01,3.043116136181981e+00,4.781850761547964e+01,
759,7.466666666659163e-03,9.036825107666679e-17,-6.264442553516069e-05,-8.608050883396355e-04,-1.112907274211041e+00,1.942234722742041e+00,-7.158160862390531e+00,1.463868028030480e+01,
760,7.466666666660807e-03,1.000000000000813e-04,-4.187484629073402e-05,-8.630620374159141e-04,4.561359956730020e+01,3.980225065333963e+00,-1.679530486711765e+01,5.349455051440918e+01,
761,7.466666666662451e-03,2.000000000000722e-04,-2.112623112130119e-05,-8.654467266972944e-04,9.250285069433031e+01,5.871792140156847e+00,-2.587498129325492e+01,1.009108464632113e+02,
762,7.466666666664097e-03,3.000000000000542e-04,-3.924483077525093e-07,-8.679597640882687e-04,1.395523566324206e+02,7.619059676841703e+00,-3.440382128138928e+01,1.487981401786193e+02,
763,7.466666666665745e-03,4.000000000000271e-04,2.033259845772521e-05,-8.706017529770234e-04,1.867598196851601e+02,9.224075054355497e+00,-4.238842216182285e+01,1.967385421189501e+02,
764,7.599999999985659e-03,-3.999999999999795e-04,-1.500252830288504e-04,-8.808208009917454e-04,-1.831860436372710e+02,-7.764073900871086e+00,3.692517764483987e+01,1.903332405088779e+02,
765,7.599999999987315e-03,-2.999999999999593e-04,-1.288579402118825e-04,-8.826342359189112e-04,-1.379462117925820e+02,-5.081013591451753e+00,2.504392292728475e+01,1.419927927585648e+02,
766,7.599999999988968e-03,-1.999999999999457e-04,-1.077363124914132e-04,-8.845707393820181e-04,-9.252667083009291e+01,-2.559252494710623e+00,1.374435768492745e+01,9.407319402794070e+01,
767,7.599999999990621e-03,-9.999999999993905e-05,-8.665413343612082e-05,-8.866309756780272e-04,-4.693072156891477e+01,-1.963262542846529e-01,3.019854199712309e+00,4.712304938110650e+01,
768,7.599999999992276e-03,6.770842567171975e-17,-6.560517306438293e-05,-8.888156038274573e-04,-1.161459795870542e+00,2.010149670655371e+00,-7.136183215881431e+00,1.462051812251085e+01,
769,7.599999999993928e-03,1.000000000000610e-04,-4.458323742166327e-05,-8.911252777136708e-04,4.477822012602337e+01,4.062481034024852e+00,-1.673031871219509e+01,5.270090764544948e+01,
770,7.599999999995582e-03,2.000000000000541e-04,-2.358216816468235e-05,-8.935606462235678e-04,9.088562172395636e+01,5.962895802866026e+00,-2.576908535945472e+01,9.933807134689140e+01,
771,7.599999999997235e-03,3.000000000000406e-04,-2.595842152241945e-06,-8.961223533896477e-04,1.371582429596436e+02,7.713545132401557e+00,-3.425898557107187e+01,1.464603774575965e+02,
772,7.599999999998888e-03,4.000000000000203e-04,1.838182895750300e-05,-8.988110385334623e-04,1.835937728458522e+02,9.316504316995008e+00,-4.220649149571538e+01,1.936443080066930e+02,
773,7.733333333318738e-03,-3.999999999999864e-04,-1.540498178343681e-04,-9.089336194987292e-04,-1.800462394338413e+02,-7.802012255140366e+00,3.672919525641026e+01,1.872543962985168e+02,
774,7.733333333320401e-03,-2.999999999999729e-04,-1.326348243164130e-04,-9.108080875563180e-04,-1.356106086086344e+02,-5.084619278162054e+00,2.490628959305277e+01,1.397080059834461e+02,
775,7.733333333322063e-03,-1.999999999999637e-04,-1.112653919843542e-04,-9.128034377058564e-04,-9.099035934758172e+01,-2.534003625461222e+00,1.366242068533173e+01,9.258063417135486e+01,
776,7.733333333323725e-03,-9.999999999995939e-05,-8.993526562229160e-05,-9.149203704718656e-04,-4.618879842643315e+01,-1.476791076492914e-01,2.991103279776920e+00,4.642813224164484e+01,
777,7.733333333325385e-03,4.515702048402126e-17,-6.863822578683846e-05,-9.171595809214380e-04,-1.209028649584386e+00,2.076761311324707e+00,-7.114119601555139e+00,1.460271229902634e+01,
778,7.733333333327048e-03,1.000000000000407e-04,-4.736808840180200e-05,-9.195217588033706e-04,4.394604761831194e+01,4.141646510412887e+00,-1.665967708113882e+01,5.190924493141664e+01,
779,7.733333333328710e-03,2.000000000000360e-04,-2.611870435929244e-05,-9.220075886886755e-04,8.927372499217782e+01,6.049228179641207e+00,-2.565197081057179e+01,9.776712788849649e+01,
780,7.733333333330370e-03,3.000000000000271e-04,-4.883959127109194e-06,-9.246177501124704e-04,1.347714916898564e+02,7.801681768805516e+00,-3.409737532469092e+01,1.441244484725585e+02,
781,7.733333333332032e-03,4.000000000000135e-04,1.634222763774750e-05,-9.273529177172335e-04,1.804370262194235e+02,9.401107409610161e+00,-4.200223836359058e+01,1.905519289677347e+02,
782,7.866666666651818e-03,-3.999999999999932e-04,-1.581295855511294e-04,-9.373754015882467e-04,-1.769154328112610e+02,-7.832917577189154e+00,3.651141996958472e+01,1.841771758678629e+02,
783,7.866666666653491e-03,-2.999999999999864e-04,-1.364711494376613e-04,-9.393106330414160e-04,-1.332813494648144e+02,-5.083448400205034e+00,2.475232851828572e+01,1.374242078590229e+02,
784,7.866666666655159e-03,-1.999999999999818e-04,-1.148581054456305e-04,-9.413645657475846e-04,-8.945784701218406e+01,-2.506116247234141e+00,1.356962114957269e+01,9.108864888443595e+01,
785,7.866666666656832e-03,-9.999999999997969e-05,-9.328420958619547e-05,-9.435379357826556e-04,-4.544823528373587e+01,-9.841634996564519e-02,2.956953870765216e+00,4.573379912166796e+01,
786,7.866666666658501e-03,2.255140518769849e-17,-7.174325296899901e-05,-9.458314735976719e-04,-1.255621238922187e+00,2.142077614308326e+00,-7.091992702798361e+00,1.458525966458687e+01,
787,7.866666666660169e-03,1.000000000000204e-04,-5.022906141380404e-05,-9.482459041575735e-04,4.311708758420788e+01,4.217714489640258e+00,-1.658351369612057e+01,5.111959441533203e+01,
788,7.866666666661838e-03,2.000000000000180e-04,-2.873549506819832e-05,-9.507819470813351e-04,8.766717968776527e+01,6.130766579990183e+00,-2.552388029200024e+01,9.619802764674124e+01,
789,7.866666666663507e-03,3.000000000000135e-04,-7.256448031239181e-06,-9.534403167834614e-04,1.323921363041631e+02,7.883430565061378e+00,-3.391934001694534e+01,1.417903533868466e+02,
790,7.866666666665179e-03,4.000000000000067e-04,1.421415201714297e-05,-9.562217226168418e-04,1.772896281609824e+02,9.477828396537088e+00,-4.177611700012203e+01,1.874613985507785e+02,
791,7.999999999984899e-03,-3.999999999999999e-04,-1.622642464464644e-04,-9.661407310174972e-04,-1.737936643884824e+02,-7.856739824601259e+00,3.627229177264879e+01,1.811015724268562e+02,
792,7.999999999986577e-03,-3.000000000000000e-04,-1.403665675862432e-04,-9.681364261347707e-04,-1.309584681218041e+02,-5.077459944263882e+00,2.458236094820819e+01,1.351414003884298e+02,
793,7.999999999988253e-03,-1.999999999999999e-04,-1.185140969278718e-04,-9.702486472757468e-04,-8.792915973773819e+01,-2.475559395569983e+00,1.346616372818900e+01,8.959725483326251e+01,
794,7.999999999989932e-03,-1.000000000000000e-04,-9.670060171226578e-05,-9.724781653947734e-04,-4.470904929569970e+01,-4.851800936106443e-02,2.917496156172878e+00,4.504009536028056e+01,
795,7.999999999991611e-03,-2.710505431213761e-20,-7.491988360803402e-05,-9.748257456671795e-04,-1.301245112128763e+00,2.206106693126331e+00,-7.069824692956214e+00,1.456815710521959e+01,
796,7.999999999993287e-03,1.000000000000000e-04,-5.316577833969883e-05,-9.772921476274622e-04,4.229134286455044e+01,4.290680433063166e+00,-1.650196099772621e+01,5.033198994986943e+01,
797,7.999999999994966e-03,1.999999999999999e-04,-3.143215532167894e-05,-9.798781253088434e-04,8.606599975437325e+01,6.207493086008071e+00,-2.538505444140172e+01,9.463078274680521e+01,
798,7.999999999996645e-03,3.000000000000000e-04,-9.712917297858693e-06,-9.825844273841785e-04,1.300202025045819e+02,7.958759563496335e+00,-3.372522643481227e+01,1.394580920749217e+02,
799,7.999999999998324e-03,4.000000000000000e-04,1.199800001339136e-05,-9.854117973082208e-04,1.741516167296132e+02,9.546620683626262e+00,-4.152857831383849e+01,1.843727094511925e+02,
800,8.133333333318303e-03,-4.000000000000067e-04,-1.664534213284128e-04,-9.952241992072278e-04,-1.706809647967463e+02,-7.873438007011290e+00,3.601224750157930e+01,1.780275783687749e+02,
801,8.133333333319951e-03,-3.000000000000135e-04,-1.443206912948765e-04,-9.972800288170856e-04,-1.286419908960496e+02,-5.066619638741495e+00,2.439670597071890e+01,1.328595853909999e+02,
802,8.133333333321602e-03,-2.000000000000179e-04,-1.222329709856028e-04,-9.994502148318420e-04,-8.640431852975195e+01,-2.442306547741442e+00,1.335225185218478e+01,8.810646953637378e+01,
803,8.133333333323254e-03,-1.000000000000204e-04,-1.001840388652374e-04,-1.001735562414617e-03,-4.397125523059072e+01,2.033736292037958e-03,2.872819988140703e+00,4.434706891443916e+01,
804,8.133333333324902e-03,-2.263272035063491e-17,-7.816770715858797e-05,-1.004136870808353e-03,-1.345907944468938e+00,2.268856790834985e+00,-7.047637240230860e+00,1.455140153975390e+01,
805,8.133333333326553e-03,9.999999999997969e-05,-5.617782149512360e-05,-1.006654933473242e-03,4.146881366955883e+01,4.360542199327321e+00,-1.641515013263718e+01,4.954646735153245e+01,
806,8.133333333328205e-03,1.999999999999818e-04,-3.420826055888163e-05,-1.009290538225508e-03,8.447019401487948e+01,6.279394432080542e+00,-2.523573186067936e+01,9.306540597651666e+01,
807,8.133333333329853e-03,2.999999999999864e-04,-1.225293574364821e-05,-1.012044467377551e-03,1.276557083974113e+02,8.027643703375928e+00,-3.351537863076182e+01,1.371276641728197e+02,
808,8.133333333331504e-03,3.999999999999933e-04,9.694209186725263e-06,-1.014917497879434e-03,1.710230199246203e+02,9.607446803977226e+00,-4.126006982172537e+01,1.812858535370045e+02,
809,8.266666666651705e-03,-4.000000000000135e-04,-1.706966922402694e-04,-1.024620405273091e-03,-1.675773549046957e+02,-7.882979979012910e+00,3.573172078023930e+01,1.749551852977570e+02,
810,8.266666666653325e-03,-3.000000000000271e-04,-1.483330943202810e-04,-1.026736011318204e-03,-1.263319368219510e+02,-5.050899803039666e+00,2.419568046740875e+01,1.305787645580487e+02,
811,8.266666666654951e-03,-2.000000000000361e-04,-1.260142933845011e-04,-1.028963809757055e-03,-8.488333958598750e+01,-2.406335527604805e+00,1.322808770077334e+01,8.661631148533097e+01,
812,8.266666666656571e-03,-1.000000000000407e-04,-1.037340791067149e-04,-1.031304639295152e-03,-4.323486551403755e+01,5.325459859559878e-02,2.823014866945547e+00,4.365477058285540e+01,
813,8.266666666658189e-03,-4.517057301117733e-17,-8.148627425668309e-05,-1.033759332589392e-03,-1.389617524192615e+00,2.330336265872480e+00,-7.025451512476717e+00,1.453498992145730e+01,
814,8.266666666659813e-03,9.999999999995936e-05,-5.926473436054803e-05,-1.036328716384547e-03,4.064949764829508e+01,4.427299976168859e+00,-1.632321094300514e+01,4.876306456897431e+01,
815,8.266666666661437e-03,1.999999999999637e-04,-3.706334736635579e-05,-1.039013611651095e-03,8.287976630025207e+01,6.346461890305126e+00,-2.507614908861384e+01,9.150191088913478e+01,
816,8.266666666663059e-03,2.999999999999729e-04,-1.487603331452762e-05,-1.041814833724431e-03,1.252986646702590e+02,8.090064653171837e+00,-3.329013787952765e+01,1.347990691292688e+02,
817,8.266666666664681e-03,3.999999999999865e-04,7.303255986826300e-06,-1.044733192445392e-03,1.679038559152549e+02,9.660278201695526e+00,-4.097103559277649e+01,1.782008218773571e+02,
818,8.399999999985112e-03,-4.000000000000203e-04,-1.749936031529035e-04,-1.054323956047877e-03,-1.644828460365129e+02,-7.885342231498986e+00,3.543114196668026e+01,1.718843840557179e+02,
819,8.399999999986705e-03,-3.000000000000406e-04,-1.524033123426935e-04,-1.056498952136920e-03,-1.240283178150502e+02,-5.030279200831736e+00,2.397959907233362e+01,1.282989395151436e+02,
820,8.399999999988301e-03,-2.000000000000541e-04,-1.298575918080928e-04,-1.058783982209738e-03,-8.336623439891973e+01,-2.367628413756965e+00,1.309387216978504e+01,8.512680027543810e+01,
821,8.399999999989893e-03,-1.000000000000610e-04,-1.073502424090726e-04,-1.061179917851143e-03,-4.249989027483562e+01,1.051582145339474e-01,2.768169924717419e+00,4.296325424953250e+01,
822,8.399999999991489e-03,-6.777618830750010e-17,-8.487509744077221e-05,-1.063687624481360e-03,-1.432381739584375e+00,2.390553577387211e+00,-7.003288181826028e+00,1.451891923899865e+01,
823,8.399999999993081e-03,9.999999999993903e-05,-6.242602230947304e-05,-1.066307961491390e-03,3.983338996387863e+01,4.490956218867527e+00,-1.622627195760743e+01,4.798182186609267e+01,
824,8.399999999994677e-03,1.999999999999457e-04,-3.999691421339745e-05,-1.069041782379749e-03,8.129471556889516e+01,6.408691150155134e+00,-2.490654057910927e+01,8.994031191695630e+01,
825,8.399999999996273e-03,2.999999999999593e-04,-1.758170182815950e-05,-1.071889934890545e-03,1.229490747709606e+02,8.146010646064447e+00,-3.304984264234017e+01,1.324723062651164e+02,
826,8.399999999997866e-03,3.999999999999797e-04,4.825655003225250e-06,-1.074853261152904e-03,1.647941332704552e+02,9.705095019980085e+00,-4.066191619339671e+01,1.751176047675750e+02,
827,8.533333333318516e-03,-4.000000000000271e-04,-1.793436606547351e-04,-1.084329466094102e-03,-1.613974402028593e+02,-7.880509694562091e+00,3.511093810365716e+01,1.688151647535397e+02,
828,8.533333333320080e-03,-3.000000000000542e-04,-1.565308436628892e-04,-1.086563438051171e-03,-1.217311388304565e+02,-5.004742890968630e+00,2.374877413362223e+01,1.260201118886240e+02,
829,8.533333333321643e-03,-2.000000000000721e-04,-1.337623565618066e-04,-1.088905291173271e-03,-8.185300985476290e+01,-2.326171445912300e+00,1.294980484509292e+01,8.363795675057709e+01,
830,8.533333333323213e-03,-1.000000000000814e-04,-1.110320113665287e-04,-1.091355929264769e-03,-4.176633738531865e+01,1.577561874422253e-01,2.708373907446071e+00,4.227257714864033e+01,
831,8.533333333324778e-03,-9.036825107666679e-17,-8.833365186985499e-05,-1.093916249861628e-03,-1.474208566725310e+00,2.449517269349099e+00,-6.981167428977365e+00,1.450318651615346e+01,
832,8.533333333326346e-03,9.999999999991870e-05,-6.566115333356947e-05,-1.096587144365529e-03,3.902048335423612e+01,4.551515579467194e+00,-1.612446038541303e+01,4.720278201908311e+01,
833,8.533333333327909e-03,1.999999999999276e-04,-4.300842218418636e-05,-1.099369498179325e-03,7.971503603337432e+01,6.466082207521177e+00,-2.472713868062536e+01,8.838062449375134e+01,
834,8.533333333329479e-03,2.999999999999457e-04,-2.036939571306782e-05,-1.102264190843870e-03,1.206069350819658e+02,8.195476316001193e+00,-3.279482853385173e+01,1.301473748338825e+02,
835,8.533333333331044e-03,3.999999999999729e-04,2.261958219182515e-06,-1.105272096176162e-03,1.616938511845408e+02,9.741885889587252e+00,-4.033314864384768e+01,1.720361917594831e+02,
836,8.666666666651921e-03,-4.000000000000339e-04,-1.837463346393729e-04,-1.114631557707512e-03,-1.583211303065954e+02,-7.868475527453240e+00,3.477153288102051e+01,1.657475168009322e+02,
837,8.666666666653458e-03,-3.000000000000677e-04,-1.607151498967065e-04,-1.116924064119091e-03,-1.194403980229661e+02,-4.974282083363696e+00,2.350351568050273e+01,1.237422833782901e+02,
838,8.666666666654995e-03,-2.000000000000904e-04,-1.377280412744069e-04,-1.119322304454788e-03,-8.034366833850409e+01,-2.281954937157331e+00,1.279608397772041e+01,8.214980316357119e+01,
839,8.666666666656535e-03,-1.000000000001017e-04,-1.147788319034641e-04,-1.121827214082080e-03,-4.103421250353239e+01,2.110581246704131e-01,2.643715161414969e+00,4.158280015357877e+01,
840,8.666666666658072e-03,-1.130009714273017e-16,-9.186137603866488e-05,-1.124439722008152e-03,-1.515106053796278e+00,2.507235959138168e+00,-6.959108949556324e+00,1.448778881528155e+01,
841,8.666666666659609e-03,9.999999999989837e-05,-6.896955876473482e-05,-1.127160751012603e-03,3.821076820703108e+01,4.608984847036373e+00,-1.601790210855440e+01,4.642599053126322e+01,
842,8.666666666661150e-03,1.999999999999095e-04,-4.609729570671275e-05,-1.129991217781497e-03,7.814071727943585e+01,6.518639248615891e+00,-2.453817362030189e+01,8.682286519076170e+01,
843,8.666666666662687e-03,2.999999999999322e-04,-2.323853274441131e-05,-1.132932033042762e-03,1.182722350943088e+02,8.238462537390877e+00,-3.252542829448704e+01,1.278242740877757e+02,
844,8.666666666664227e-03,3.999999999999661e-04,-3.872457309192468e-07,-1.135984101702940e-03,1.586029997059206e+02,9.770647723473836e+00,-3.998516637871381e+01,1.689565716921381e+02,
845,8.799999999985321e-03,-4.000000000000406e-04,-1.882010589908948e-04,-1.145224860911569e-03,-1.552539003698267e+02,-7.849240926555162e+00,3.441334659656720e+01,1.626814289385507e+02,
846,8.799999999986832e-03,-3.000000000000813e-04,-1.649556566670796e-04,-1.147575433671077e-03,-1.171560869040152e+02,-4.938893993925330e+00,2.324413139439241e+01,1.214654558372027e+02,
847,8.799999999988341e-03,-2.000000000001083e-04,-1.417540635967561e-04,-1.150029598674860e-03,-7.883820782739016e+01,-2.234973179063114e+00,1.263290646237633e+01,8.066236335079238e+01,
848,8.799999999989854e-03,-1.000000000001220e-04,-1.185901139799180e-04,-1.152588322200407e-03,-4.030351912042933e+01,2.650716735448810e-01,2.574281618318166e+00,4.089398809618075e+01,
849,8.799999999991363e-03,-1.355252715606881e-16,-9.545767248989486e-05,-1.155252564084669e-03,-1.555082309001257e+00,2.563718324209825e+00,-6.937131957777278e+00,1.447272323561116e+01,
850,8.799999999992871e-03,9.999999999987805e-05,-7.235063399404370e-05,-1.158023277855221e-03,3.740423262430275e+01,4.663372883460121e+00,-1.590672168030438e+01,4.565149586846188e+01,
851,8.799999999994383e-03,1.999999999998915e-04,-4.926292327844059e-05,-1.160901410862760e-03,7.657174438716099e+01,6.566370539390668e+00,-2.433987349091319e+01,8.526705186518835e+01,
852,8.799999999995894e-03,2.999999999999187e-04,-2.618849477637954e-05,-1.163887904414959e-03,1.159449575816136e+02,8.274976265423394e+00,-3.224197176663657e+01,1.255030033514382e+02,
853,8.799999999997404e-03,3.999999999999593e-04,-3.121332300649566e-06,-1.166983693911669e-03,1.555215599542162e+02,9.791385507011050e+00,-3.961839921215901e+01,1.658787327204692e+02,
854,8.933333333318727e-03,-4.000000000000474e-04,-1.927072322667433e-04,-1.176104013443149e-03,-1.521957257459593e+02,-7.822814925252173e+00,3.403679612797776e+01,1.596168892738921e+02,
855,8.933333333320212e-03,-3.000000000000948e-04,-1.692517542935254e-04,-1.178512158293021e-03,-1.148781904967891e+02,-4.898581701472303e+00,2.297092658417418e+01,1.191896313582394e+02,
856,8.933333333321688e-03,-2.000000000001264e-04,-1.458398058978819e-04,-1.181021759248377e-03,-7.733662199298965e+01,-2.185224354769019e+00,1.246046781906960e+01,7.917566292781027e+01,
857,8.933333333323175e-03,-1.000000000001423e-04,-1.224652322942626e-04,-1.183633812846949e-03,-3.957425859550242e+01,3.198025633805308e-01,2.500160783970231e+00,4.020621011151764e+01,
858,8.933333333324656e-03,-1.581444393841669e-16,-9.912190852346854e-05,-1.186349309117077e-03,-1.594145489104744e+00,2.618973087922946e+00,-6.915255193202166e+00,1.445798691701351e+01,
859,8.933333333326137e-03,9.999999999985774e-05,-7.580373918760417e-05,-1.189169231707181e-03,3.660086248581895e+01,4.714690558768250e+00,-1.579104232220392e+01,4.487934971284653e+01,
860,8.933333333327622e-03,1.999999999998734e-04,-5.250465818873963e-05,-1.192094558016594e-03,7.500809805130999e+01,6.609288315503923e+00,-2.413246423958833e+01,8.371320382338165e+01,
861,8.933333333329104e-03,2.999999999999051e-04,-2.921862847115575e-05,-1.195126259327735e-03,1.136250787652466e+02,8.305030376365199e+00,-3.194478587793492e+01,1.231835621005691e+02,
862,8.933333333330585e-03,3.999999999999526e-04,-5.939641767101028e-06,-1.198265300939644e-03,1.524495043445188e+02,9.804112097461326e+00,-3.923327331144702e+01,1.628026623499742e+02,
863,9.066666666652134e-03,-4.000000000000541e-04,-1.972642183782277e-04,-1.207263660729599e-03,-1.491465733267712e+02,-7.789214197031319e+00,3.364229490850369e+01,1.565538853142176e+02,
864,9.066666666653589e-03,-3.000000000001084e-04,-1.736027984790823e-04,-1.209728857800916e-03,-1.126066874924784e+02,-4.853354007133551e+00,2.268420416610515e+01,1.169148123712394e+02,
865,9.066666666655043e-03,-2.000000000001445e-04,-1.499846159583906e-04,-1.212293380356767e-03,-7.583890029888910e+01,-2.132710449874984e+00,1.227896217651399e+01,7.768972950517951e+01,
866,9.066666666656497e-03,-1.000000000001627e-04,-1.264035269830384e-04,-1.214958254548699e-03,-3.884643020684371e+01,3.752546369832768e-01,2.421439726950036e+00,3.951954002001408e+01,
867,9.066666666657947e-03,-1.806822920447093e-16,-1.028534169028123e-04,-1.217724499961129e-03,-1.632303787285120e+00,2.673009006981192e+00,-6.893496924322352e+00,1.444357703752918e+01,
868,9.066666666659406e-03,9.999999999983742e-05,-7.932819999925970e-05,-1.220593129739023e-03,3.580064151929653e+01,4.762950692461470e+00,-1.567098592161718e+01,4.410960724019539e+01,
869,9.066666666660858e-03,1.999999999998553e-04,-5.582181923802892e-05,-1.223565150716921e-03,7.344975469374211e+01,6.647408670327072e+00,-2.391616966199023e+01,8.216134200118985e+01,
870,9.066666666662313e-03,2.999999999998914e-04,-3.232824602452295e-05,-1.226641563549339e-03,1.113125684876237e+02,8.328643514705259e+00,-3.163419462368224e+01,1.208659500470820e+02,
871,9.066666666663769e-03,3.999999999999458e-04,-8.841479962875576e-06,-1.229823362842500e-03,1.493867968030411e+02,9.808848020754464e+00,-3.883021117528346e+01,1.597283474713836e+02,
872,9.199999999985539e-03,-4.000000000000610e-04,-2.018713472686125e-04,-1.238698455857338e-03,-1.461064017597733e+02,-7.748462866286061e+00,3.323025290765540e+01,1.534924040077584e+02,
873,9.199999999986965e-03,-3.000000000001219e-04,-1.780081109947109e-04,-1.241220160207001e-03,-1.103415504025437e+02,-4.803225294881497e+00,2.238426464654170e+01,1.146410017471771e+02,
874,9.199999999988388e-03,-2.000000000001626e-04,-1.541878076611436e-04,-1.243839064911766e-03,-7.434502809703027e+01,-2.077437163971003e+00,1.208858225880446e+01,7.620459292837616e+01,
875,9.199999999989814e-03,-1.000000000001830e-04,-1.304043043179481e-04,-1.246556225093907e-03,-3.812003118663640e+01,4.314298934497840e-01,2.338205068577606e+00,3.883405674379497e+01,
876,9.199999999991243e-03,-2.032879073410321e-16,-1.066514965581483e-04,-1.249372689261681e-03,-1.669565420462609e+00,2.725834860340670e+00,-6.871874955276025e+00,1.442949081680587e+01,
877,9.199999999992669e-03,9.999999999981709e-05,-8.292330828019501e-05,-1.252289499435108e-03,3.500355135936249e+01,4.808167990852622e+00,-1.554667303512624e+01,4.334232742499839e+01,
878,9.199999999994095e-03,1.999999999998373e-04,-5.921369145366685e-05,-1.255307691273102e-03,7.189668658545278e+01,6.680751451071300e+00,-2.369121139586644e+01,8.061148916293746e+01,
879,9.199999999995521e-03,2.999999999998779e-04,-3.551662588803394e-05,-1.258428294201964e-03,1.090073903724004e+02,8.345839935130760e+00,-3.131051905928998e+01,1.185501672351567e+02,
880,9.199999999996948e-03,3.999999999999391e-04,-1.182611900455495e-05,-1.261652331545219e-03,1.463333929837235e+02,9.805621274127494e+00,-3.840963161597644e+01,1.566557743956079e+02,
881,9.333333333318946e-03,-4.000000000000677e-04,-2.065279155887895e-04,-1.270403059532203e-03,-1.430751616494725e+02,-7.700592314049748e+00,3.280107661855968e+01,1.504324317828362e+02,
882,9.333333333320339e-03,-3.000000000001356e-04,-1.824669803611052e-04,-1.272980701677632e-03,-1.080827457073007e+02,-4.748215391037937e+00,2.207140611080210e+01,1.123682029157467e+02,
883,9.333333333321737e-03,-2.000000000001806e-04,-1.584486616792377e-04,-1.275653424510917e-03,-7.285498672224388e+01,-2.019413823466896e+00,1.188951937581749e+01,7.472028554448723e+01,
884,9.333333333323136e-03,-1.000000000002033e-04,-1.344668373999906e-04,-1.278422311485275e-03,-3.739505676494102e+01,4.883285234314245e-01,2.250542975391873e+00,3.814984476565556e+01,
885,9.333333333324534e-03,-2.258799701101988e-16,-1.105154132867901e-04,-1.281288439403637e-03,-1.705938618430085e+00,2.777459436782323e+00,-6.850406631590640e+00,1.441572551743569e+01,
886,9.333333333325932e-03,9.999999999979676e-05,-8.658832278537774e-05,-1.284252878542418e-03,3.420957161690291e+01,4.850358989797638e+00,-1.541822288831812e+01,4.257757337165899e+01,
887,9.333333333327335e-03,1.999999999998192e-04,-6.267952680255457e-05,-1.287316692776639e-03,7.034886195301517e+01,6.709340147066289e+00,-2.345780892009014e+01,7.906367012108460e+01,
888,9.333333333328728e-03,2.999999999998644e-04,-3.878301348777169e-05,-1.290480939706420e-03,1.067095019959178e+02,8.356649356147473e+00,-3.097407729194740e+01,1.162362141448632e+02,
889,9.333333333330132e-03,3.999999999999323e-04,-1.489279801760830e-05,-1.293746670784836e-03,1.432892404781271e+02,9.794467127183829e+00,-3.797194974891185e+01,1.535849288926334e+02,
890,9.466666666652343e-03,-4.000000000000744e-04,-2.112331873705272e-04,-1.302372140031674e-03,-1.400527957696949e+02,-7.645640994237759e+00,3.235516904905873e+01,1.473739545934237e+02,
891,9.466666666653719e-03,-3.000000000001490e-04,-1.869786625279612e-04,-1.305005126483074e-03,-1.058302340091434e+02,-4.688349429748212e+00,2.174592421304203e+01,1.100964199953348e+02,
892,9.466666666655084e-03,-2.000000000001987e-04,-1.627664261612775e-04,-1.307731079384958e-03,-7.136875358822391e+01,-1.958653294481598e+00,1.168196341294019e+01,7.323684250097392e+01,
893,9.466666666656460e-03,-1.000000000002237e-04,-1.385903668507488e-04,-1.310551109885046e-03,-3.667150021383903e+01,5.459489436033200e-01,2.158539150792484e+00,3.746699463326118e+01,
894,9.466666666657826e-03,-2.484855854065215e-16,-1.144444004504484e-04,-1.313466322454830e-03,-1.741431612872222e+00,2.827891522972383e+00,-6.829108843787422e+00,1.440227844200171e+01,
895,9.466666666659197e-03,9.999999999977643e-05,-9.032246987689135e-05,-1.316477815011262e-03,3.341867993592534e+01,4.889541993144365e+00,-1.528575338005709e+01,4.181541267692969e+01,
896,9.466666666660567e-03,1.999999999998011e-04,-6.621854490049664e-05,-1.319586679039778e-03,6.880624509786952e+01,6.733201789713374e+00,-2.321617955532288e+01,7.751791198243276e+01,
897,9.466666666661938e-03,2.999999999998509e-04,-4.212662193970421e-05,-1.322793999718713e-03,1.044188550429658e+02,8.361106805088154e+00,-3.062518447960751e+01,1.139240918075341e+02,
898,9.466666666663308e-03,3.999999999999255e-04,-1.804072385777222e-05,-1.326100856045042e-03,1.402542790295034e+02,9.775427930376127e+00,-3.751757698731491e+01,1.505157962346299e+02,
899,9.599999999985750e-03,-4.000000000000813e-04,-2.159863946972963e-04,-1.334600373149206e-03,-1.370392392581027e+02,-7.583654242475411e+00,3.189292971830778e+01,1.443169579633869e+02,
900,9.599999999987095e-03,-3.000000000001627e-04,-1.915423815506544e-04,-1.337288086939349e-03,-1.035839701772466e+02,-4.623657716809697e+00,2.140811217325328e+01,1.078256579370498e+02,
901,9.599999999988435e-03,-2.000000000002168e-04,-1.671403174139362e-04,-1.340066658337326e-03,-6.988630228211633e+01,-1.895171900199750e+00,1.146610282769156e+01,7.175430207891068e+01,
902,9.599999999989778e-03,-1.000000000002440e-04,-1.427741015008237e-04,-1.342937225552201e-03,-3.594935288470214e+01,6.042878364824400e-01,2.062278830087399e+00,3.678560351367842e+01,
903,9.599999999991123e-03,-2.710369905942200e-16,-1.184376596695495e-04,-1.345900920100970e-03,-1.776052626263505e+00,2.877139893336945e+00,-6.807998035237066e+00,1.438914693842664e+01,
904,9.599999999992465e-03,9.999999999975610e-05,-9.412494422412353e-05,-1.348958866928070e-03,3.263085205623266e+01,4.925737015696412e+00,-1.514938108741777e+01,4.105591782845188e+01,
905,9.599999999993804e-03,1.999999999997831e-04,-6.982993371825191e-05,-1.352112184526234e-03,6.726879650752254e+01,6.752366848569631e+00,-2.296653846633701e+01,7.597424441986867e+01,
906,9.599999999995149e-03,2.999999999998373e-04,-4.554663276165019e-05,-1.355361985058722e-03,1.021353954683083e+02,8.359252471510876e+00,-3.026415283101151e+01,1.116138019318000e+02,
907,9.599999999996492e-03,3.999999999999186e-04,-2.126907182887862e-05,-1.358709374482903e-03,1.372284407373570e+02,9.748552921821817e+00,-3.704692104004778e+01,1.474483612375925e+02,
908,9.733333333319150e-03,-4.000000000000881e-04,-2.207867383726605e-04,-1.367082442130787e-03,-1.340344198208297e+02,-7.514684094108037e+00,3.141475465902436e+01,1.412614270404567e+02,
909,9.733333333320470e-03,-3.000000000001761e-04,-1.961573302643720e-04,-1.369824243342370e-03,-1.013439034978992e+02,-4.554175597420659e+00,2.105826077419231e+01,1.055559226873804e+02,
910,9.733333333321782e-03,-2.000000000002348e-04,-1.715695205818021e-04,-1.372654798675897e-03,-6.840760265770584e+01,-1.828989334127064e+00,1.124212464419388e+01,7.027270606823809e+01,
911,9.733333333323097e-03,-1.000000000002643e-04,-1.470172190754295e-04,-1.375575272771910e-03,-3.522860424980981e+01,6.633401854483774e-01,1.961846775871490e+00,3.610577580431766e+01,
912,9.733333333324410e-03,-2.936697109448549e-16,-1.224943615145509e-04,-1.378586823572884e-03,-1.809809862197048e+00,2.925213297577934e+00,-6.787090206094016e+00,1.437632839727288e+01,
913,9.733333333325723e-03,9.999999999973578e-05,-9.799490950084159e-05,-1.381690602440484e-03,3.184606187925984e+01,4.958965728726711e+00,-1.500922127013103e+01,4.029916664090002e+01,
914,9.733333333327040e-03,1.999999999997650e-04,-7.351285028436817e-05,-1.384887754274168e-03,6.573647295962425e+01,6.766869125556470e+00,-2.270909866914064e+01,7.443269997659606e+01,
915,9.733333333328356e-03,2.999999999998238e-04,-4.904219658184083e-05,-1.388179417631174e-03,9.985906365640685e+01,8.351131562677471e+00,-2.989129161149695e+01,1.093053470461751e+02,
916,9.733333333329670e-03,3.999999999999119e-04,-2.457698639717203e-05,-1.391566724847852e-03,1.342116502655810e+02,9.713898039367228e+00,-3.656038591594943e+01,1.443826083109470e+02,
917,9.866666666652557e-03,-4.000000000000948e-04,-2.256333885862878e-04,-1.399813037603945e-03,-1.310382579339960e+02,-7.438789106153992e+00,3.092103642284894e+01,1.382073466512446e+02,
918,9.866666666653850e-03,-3.000000000001899e-04,-2.008226709556762e-04,-1.402608263894506e-03,-9.910997781513672e+01,-4.479943322763581e+00,2.069665836448240e+01,1.032872213676606e+02,
919,9.866666666655134e-03,-2.000000000002530e-04,-1.760531903245500e-04,-1.405490146137204e-03,-6.693262092471480e+01,-1.760128576585092e+00,1.101021445393758e+01,6.879210018711312e+01,
920,9.866666666656415e-03,-1.000000000002846e-04,-1.513188668771366e-04,-1.408459874777462e-03,-3.450924194275687e+01,7.230993117853228e-01,1.857327273513682e+00,3.542762380798727e+01,
921,9.866666666657708e-03,-3.162346686597095e-16,-1.266136461943151e-04,-1.411518633566232e-03,-1.842711494501263e+00,2.972120452217474e+00,-6.766400920118082e+00,1.436382025514949e+01,
922,9.866666666658992e-03,9.999999999971544e-05,-1.019314990791569e-04,-1.414667599674913e-03,3.106428151913151e+01,4.989251399953553e+00,-1.486538787994907e+01,3.954524273539592e+01,
923,9.866666666660279e-03,1.999999999997469e-04,-7.726642138475625e-05,-1.417907943811673e-03,6.420922763525446e+01,6.776745657776290e+00,-2.244407103798662e+01,7.289331440623423e+01,
924,9.866666666661564e-03,2.999999999998101e-04,-5.261243384409982e-05,-1.421240830339092e-03,9.758979457563656e+01,8.336794157289962e+00,-2.950690715144905e+01,1.069987306572107e+02,
925,9.866666666662848e-03,3.999999999999051e-04,-2.796358190209791e-05,-1.424667417393192e-03,1.312038250422997e+02,9.671525732965804e+00,-3.605837193294736e+01,1.413185215080903e+02,
926,9.999999999985963e-03,-4.000000000001017e-04,-2.305254855774966e-04,-1.432786857499341e-03,-1.280506670328171e+02,-7.356034173737389e+00,3.041216409137393e+01,1.351547013605915e+02,
927,9.999999999987217e-03,-3.000000000002032e-04,-2.055375360315320e-04,-1.435634824623740e-03,-9.688213167167621e+01,-4.401005917735999e+00,2.032359086465584e+01,1.010195624780260e+02,
928,9.999999999988480e-03,-2.000000000002709e-04,-1.805904514913986e-04,-1.438567354803246e-03,-6.546131974365660e+01,-1.688615814532552e+00,1.077055641603669e+01,6.731253455691467e+01,
929,9.999999999989736e-03,-1.000000000003050e-04,-1.556781624658147e-04,-1.441585663664804e-03,-3.379125180332758e+01,7.835569059566163e-01,1.748804128695564e+00,3.475126847765078e+01,
930,9.999999999990992e-03,-3.388131789017201e-16,-1.307946242414996e-04,-1.444690960153822e-03,-1.874765658416486e+00,3.017870028065212e+00,-6.745945308835762e+00,1.435161999217674e+01,
931,9.999999999992256e-03,9.999999999969511e-05,-1.059338167203980e-04,-1.447884446646733e-03,3.028548136956797e+01,5.016618841960708e+00,-1.471799356600561e+01,3.879423606510436e+01,
932,9.999999999993511e-03,1.999999999997289e-04,-8.108974425902585e-05,-1.451167319064900e-03,6.268701022419572e+01,6.782036617467018e+00,-2.217166431565717e+01,7.135612705348976e+01,
933,9.999999999994772e-03,2.999999999997967e-04,-5.625643550967598e-05,-1.454540766989923e-03,9.532751793423880e+01,8.316295066014661e+00,-2.911130285784653e+01,1.046939574251964e+02,
934,9.999999999996029e-03,3.999999999998984e-04,-3.142794326362588e-05,-1.458005973780269e-03,1.282048754598131e+02,9.621504779713149e+00,-3.554127573027631e+01,1.382560845821843e+02,
935,1.013333333331937e-02,-4.000000000001083e-04,-2.354621402964644e-04,-1.465998606965134e-03,-1.250715537071262e+02,-7.266490354715739e+00,2.988852329161321e+01,1.321034755397400e+02,
936,1.013333333332060e-02,-3.000000000002168e-04,-2.103010286857702e-04,-1.468898609295652e-03,-9.466029845835273e+01,-4.317413058588995e+00,1.993934177509995e+01,9.875295612816777e+01,
937,1.013333333332183e-02,-2.000000000002891e-04,-1.851803997929110e-04,-1.471881087011125e-03,-6.399365831335288e+01,-1.614480357390943e+00,1.052333326100960e+01,6.583406423843699e+01,
938,1.013333333332306e-02,-1.000000000003253e-04,-1.600941943357461e-04,-1.474947280299901e-03,-3.307461790874613e+01,8.447030694758029e-01,1.636360667475972e+00,3.407684023732096e+01,
939,1.013333333332429e-02,-3.614458992523550e-16,-1.350363771950049e-04,-1.478098422690815e-03,-1.905980439014487e+00,3.062470643408028e+00,-6.725738079076586e+00,1.433972513654947e+01,
940,1.013333333332552e-02,9.999999999967477e-05,-1.100009372628897e-04,-1.481335741163335e-03,2.950963015500319e+01,5.041094355431802e+00,-1.456714968741278e+01,3.804624349705064e+01,
941,1.013333333332675e-02,1.999999999997108e-04,-8.498188729362200e-05,-1.484660456259046e-03,6.116976703156689e+01,6.782785216001525e+00,-2.189208512619937e+01,6.982118128259988e+01,
942,1.013333333332798e-02,2.999999999997832e-04,-5.997326375572229e-05,-1.488073782194512e-03,9.307215832790376e+01,8.289693687540140e+00,-2.870477922992273e+01,1.023910333625407e+02,
943,1.013333333332921e-02,3.999999999998916e-04,-3.496912668606476e-05,-1.491576926975503e-03,1.252147050760676e+02,9.563910105098035e+00,-3.500949028619175e+01,1.351952810486115e+02,
944,1.026666666665277e-02,-4.000000000001152e-04,-2.404424350630118e-04,-1.499442998274291e-03,-1.221008178950008e+02,-7.170234697305326e+00,2.935049621541693e+01,1.290536534412227e+02,
945,1.026666666665397e-02,-3.000000000002303e-04,-2.151122235630787e-04,-1.502394309318301e-03,-9.244440654603972e+01,-4.229218940081569e+00,1.954419218936398e+01,9.648741429685829e+01,
946,1.026666666665517e-02,-2.000000000003072e-04,-1.898221024701429e-04,-1.505426013255628e-03,-6.252959245865829e+01,-1.537754556454119e+00,1.026872629661770e+01,6.435674983797846e+01,
947,1.026666666665638e-02,-1.000000000003456e-04,-1.645660225899546e-04,-1.508539374219088e-03,-3.235932261894314e+01,9.065263460031576e-01,1.520079734472286e+00,3.340447989349979e+01,
948,1.026666666665758e-02,-3.840108569672096e-16,-1.393379582795084e-04,-1.511735649712860e-03,-1.936363865946340e+00,3.105930850425167e+00,-6.705793516630154e+00,1.432813326143584e+01,
949,1.026666666665878e-02,9.999999999965446e-05,-1.141319073066928e-04,-1.515016090720182e-03,2.873669499243073e+01,5.062705677508785e+00,-1.441296632094523e+01,3.730136944882646e+01,
950,1.026666666665998e-02,1.999999999996927e-04,-8.894189071178744e-05,-1.518381941812355e-03,5.965744107750490e+01,6.779037603210371e+00,-2.160553799044802e+01,6.828852496149743e+01,
951,1.026666666666119e-02,2.999999999997696e-04,-6.376195267045709e-05,-1.521834441259141e-03,9.082363539454573e+01,8.257053874556542e+00,-2.828763387738712e+01,1.000899660576494e+02,
952,1.026666666666239e-02,3.999999999998848e-04,-3.858616035846440e-05,-1.525374821140494e-03,1.222332108045233e+02,9.498822601538379e+00,-3.446340494088273e+01,1.321360942512618e+02,
953,1.039999999998618e-02,-4.000000000001219e-04,-2.454654242230372e-04,-1.533114750725011e-03,-1.191383530667416e+02,-7.067350065721260e+00,2.879846164235491e+01,1.260052192788833e+02,
954,1.039999999998735e-02,-3.000000000002439e-04,-2.199701674204498e-04,-1.536116623640296e-03,-9.023437942484944e+01,-4.136482151571203e+00,1.913842080875256e+01,9.422295112705579e+01,
955,1.039999999998853e-02,-2.000000000003252e-04,-1.945145989611427e-04,-1.539196812084987e-03,-6.106907472420222e+01,-1.458473728948895e+00,1.000691541494746e+01,6.288065819870963e+01,
956,1.039999999998970e-02,-1.000000000003660e-04,-1.690926796117763e-04,-1.542356603522583e-03,-3.164534661722392e+01,9.690137552803382e-01,1.400043693980979e+00,3.273433964337450e+01,
957,1.039999999999087e-02,-4.066435773178445e-16,-1.436983930820863e-04,-1.545597278827467e-03,-1.965923899027568e+00,3.148259130613068e+00,-6.686125493983250e+00,1.431684198927387e+01,
958,1.039999999999205e-02,9.999999999963410e-05,-1.183257458953089e-04,-1.548920112390069e-03,2.796664144554701e+01,5.081481929154640e+00,-1.425555227314315e+01,3.655972659279595e+01,
959,1.039999999999322e-02,1.999999999996746e-04,-9.296876726030913e-05,-1.552326372223361e-03,5.814997220500351e+01,6.770842778555913e+00,-2.131222534127955e+01,6.675821100516077e+01,
960,1.039999999999440e-02,2.999999999997560e-04,-6.762150894503023e-05,-1.555817320070765e-03,8.858186395913788e+01,8.218443795350829e+00,-2.786016154212355e+01,9.779076492713538e+01,
961,1.039999999999558e-02,3.999999999998780e-04,-4.227804515155225e-05,-1.559394211515369e-03,1.192602831086673e+02,9.426328951402940e+00,-3.390340542130282e+01,1.290785074381671e+02,
962,1.053333333331958e-02,-4.000000000001287e-04,-2.505301348026241e-04,-1.567008590534388e-03,-1.161840464138926e+02,-6.957924971978040e+00,2.823279496842429e+01,1.229581573225633e+02,
963,1.053333333332072e-02,-3.000000000002574e-04,-2.248738797861701e-04,-1.570060258642111e-03,-8.803013584348560e+01,-4.039265555424744e+00,1.872230396071248e+01,9.195958326425313e+01,
964,1.053333333332187e-02,-2.000000000003433e-04,-1.992569015648537e-04,-1.573188169989904e-03,-5.961205445332773e+01,-1.376676073533855e+00,9.738079103042146e+00,6.140586318509160e+01,
965,1.053333333332302e-02,-1.000000000003863e-04,-1.736731707336643e-04,-1.576393634761333e-03,-3.093266894315012e+01,1.032150830957015e+00,1.276334432591001e+00,3.206658418862882e+01,
966,1.053333333332417e-02,-4.291949825055430e-16,-1.481166802259607e-04,-1.579677956598712e-03,-1.994668425007034e+00,3.189463882235385e+00,-6.666747473456534e+00,1.430584898838062e+01,
967,1.053333333332531e-02,9.999999999961377e-05,-1.225814451943597e-04,-1.583042432705740e-03,2.719943357784909e+01,5.097453562040101e+00,-1.409501509437605e+01,3.582143663593038e+01,
968,1.053333333332646e-02,1.999999999996566e-04,-9.706150289318257e-05,-1.586488353951481e-03,5.664729717693936e+01,6.758252493889689e+00,-2.101234754307631e+01,6.523029799465449e+01,
969,1.053333333332761e-02,2.999999999997425e-04,-7.155091256211937e-05,-1.590017004975693e-03,8.634675417986594e+01,8.173935800204113e+00,-2.742265412276776e+01,9.549344150237440e+01,
970,1.053333333332875e-02,3.999999999998712e-04,-4.604375531132074e-05,-1.593629664295528e-03,1.162958061942264e+02,9.346521455949180e+00,-3.332987387135786e+01,1.260225038441611e+02,
971,1.066666666665299e-02,-4.000000000001354e-04,-2.556355671598017e-04,-1.601119250725581e-03,-1.132377790303807e+02,-6.842053407430910e+00,2.765386823664245e+01,1.199124519999167e+02,
972,1.066666666665410e-02,-3.000000000002711e-04,-2.298223536163631e-04,-1.604219928020904e-03,-8.583158993794336e+01,-3.937636160818462e+00,1.829611562074570e+01,8.969733024165575e+01,
973,1.066666666665522e-02,-2.000000000003614e-04,-2.040479961024141e-04,-1.607394781286137e-03,-5.815847788252064e+01,-1.292402598777914e+00,9.462394454026652e+00,5.993244658272071e+01,
974,1.066666666665634e-02,-1.000000000004066e-04,-1.783064749032923e-04,-1.610645142817370e-03,-3.022126703372985e+01,1.095921653508561e+00,1.149033360796776e+00,3.140139197438530e+01,
975,1.066666666665746e-02,-4.517870452747097e-16,-1.525917920414073e-04,-1.613972338425455e-03,-2.022605248927317e+00,3.229553410998564e+00,-6.647672514477286e+00,1.429515197638631e+01,
976,1.066666666665858e-02,9.999999999959343e-05,-1.268979711672999e-04,-1.617377687536088e-03,2.643503401256118e+01,5.110652311642241e+00,-1.393146108986756e+01,3.508663117656726e+01,
977,1.066666666665970e-02,1.999999999996385e-04,-1.012190574521402e-04,-1.620862503291219e-03,5.514934977547612e+01,6.741321162355991e+00,-2.070610291232158e+01,6.370485087865182e+01,
978,1.066666666666081e-02,2.999999999997289e-04,-7.554911748129699e-05,-1.624428092651829e-03,8.411821169158176e+01,8.123606289248219e+00,-2.697540070252472e+01,9.319800975612873e+01,
979,1.066666666666193e-02,3.999999999998644e-04,-4.988223914920908e-05,-1.628075756502060e-03,1.133396581911768e+02,9.259497859838300e+00,-3.274318888643669e+01,1.229680667832450e+02,
980,1.079999999998639e-02,-4.000000000001423e-04,-2.607806956340243e-04,-1.635441471008511e-03,-1.102994260942287e+02,-6.719834678879671e+00,2.706205017270089e+01,1.168680880136651e+02,
981,1.079999999998748e-02,-3.000000000002845e-04,-2.348145559490842e-04,-1.638590352668936e-03,-8.363865137118250e+01,-3.831665009287242e+00,1.786012743574690e+01,8.743621492409318e+01,
982,1.079999999998857e-02,-2.000000000003794e-04,-2.088868425759204e-04,-1.641811347990665e-03,-5.670828821863824e+01,-1.205697040737169e+00,9.180037181061618e+00,5.846049912585350e+01,
983,1.079999999998966e-02,-1.000000000004269e-04,-1.829915453469673e-04,-1.645105810777846e-03,-2.951111676622584e+01,1.160308881039563e+00,1.018221417250929e+00,3.073895656416990e+01,
984,1.079999999999075e-02,-4.743926605710325e-16,-1.571226752338220e-04,-1.648475088413301e-03,-2.049742079651217e+00,3.268535927604095e+00,-6.628913278764683e+00,1.428474871994557e+01,
985,1.079999999999184e-02,9.999999999957311e-05,-1.312742642481865e-04,-1.651920521956041e-03,2.567340397820788e+01,5.121111142132842e+00,-1.376499533522602e+01,3.435545265507293e+01,
986,1.079999999999293e-02,1.999999999996205e-04,-1.054403653441122e-04,-1.655443446240093e-03,5.365606090313889e+01,6.720105769746167e+00,-2.039368774028775e+01,6.218194177474120e+01,
987,1.079999999999402e-02,2.999999999997154e-04,-7.961505232119842e-05,-1.659045189974707e-03,8.189613774958353e+01,8.067535582972546e+00,-2.651868757829528e+01,9.090448647551256e+01,
988,1.079999999999512e-02,3.999999999998577e-04,-5.379241972899366e-05,-1.662727075845880e-03,1.103917113416497e+02,9.165361183834664e+00,-3.214372554981076e+01,1.199151797528521e+02,
989,1.093333333331979e-02,-4.000000000001490e-04,-2.659644691934007e-04,-1.669969997654401e-03,-1.073688570479419e+02,-6.591373245481784e+00,2.645770622368060e+01,1.138250504767270e+02,
990,1.093333333332085e-02,-3.000000000002982e-04,-2.398494285560398e-04,-1.673166260545811e-03,-8.145122545738798e+01,-3.721427048628914e+00,1.741460875044161e+01,8.517626401991434e+01,
991,1.093333333332192e-02,-2.000000000003975e-04,-2.137723758246390e-04,-1.676432579691732e-03,-5.526142572831655e+01,-1.116605790903789e+00,8.891181632042107e+00,5.699012168183800e+01,
992,1.093333333332298e-02,-1.000000000004473e-04,-1.877273102303774e-04,-1.679770329802923e-03,-2.880219248636513e+01,1.225293788090716e+00,8.839790740559730e-01,3.007948816014177e+01,
993,1.093333333332404e-02,-4.970253809216674e-16,-1.617082515490390e-04,-1.683180879240404e-03,-2.076086530284975e+00,3.306419532492252e+00,-6.610482035557654e+00,1.427463703515979e+01,
994,1.093333333332511e-02,9.999999999955278e-05,-1.357092400115354e-04,-1.686665590110385e-03,2.491450336646005e+01,5.128864202332854e+00,-1.359572169113420e+01,3.362805540533309e+01,
995,1.093333333332617e-02,1.999999999996024e-04,-1.097243362156320e-04,-1.690225818360506e-03,5.216735867678383e+01,6.694665785099543e+00,-2.007529631741966e+01,6.066165088216977e+01,
996,1.093333333332723e-02,2.999999999997017e-04,-8.374762103850339e-05,-1.693862913877454e-03,7.968042936786361e+01,8.005807794260500e+00,-2.605279829535279e+01,8.861289169072725e+01,
997,1.093333333332830e-02,3.999999999998510e-04,-5.777319555035917e-05,-1.697578220585882e-03,1.074518321839126e+02,9.064219559775140e+00,-3.153185547556272e+01,1.168638265538333e+02,
998,1.106666666665320e-02,-4.000000000001559e-04,-2.711858120796593e-04,-1.704699583364207e-03,-1.044459357729712e+02,-6.456778559826116e+00,2.584119860062412e+01,1.107833250620780e+02,
999,1.106666666665423e-02,-3.000000000003116e-04,-2.449258885919424e-04,-1.707942386544667e-03,-7.926921329377205e+01,-3.607001020736679e+00,1.695982663912515e+01,8.291750867317819e+01,
1000,1.106666666665527e-02,-2.000000000004156e-04,-2.187035061787558e-04,-1.711253193412852e-03,-5.381782781977446e+01,-1.025177820603986e+00,8.596000808038248e+00,5.552142661623611e+01,
1001,1.106666666665631e-02,-1.000000000004676e-04,-1.925126733167332e-04,-1.714633398987675e-03,-2.809446705642174e+01,1.290856293114367e+00,7.463863412120433e-01,2.942321530081618e+01,
1002,1.106666666665734e-02,-5.195225760007416e-16,-1.663474184358544e-04,-1.718084392017324e-03,-2.101646107468766e+00,3.343212211717559e+00,-6.592390666878462e+00,1.426481478796684e+01,
1003,1.106666666665837e-02,9.999999999953246e-05,-1.402017898392830e-04,-1.721607555071624e-03,2.415829078404034e+01,5.133946775418466e+00,-1.342374281948410e+01,3.290460682173534e+01,
1004,1.106666666665941e-02,1.999999999995843e-04,-1.140698556242789e-04,-1.725204264635683e-03,5.068316852082560e+01,6.665063069578377e+00,-1.975112095755613e+01,5.914406752868095e+01,
1005,1.106666666666044e-02,2.999999999996883e-04,-8.794570360382032e-05,-1.728875891204888e-03,7.747097945430096e+01,7.938510699266088e+00,-2.557801368071031e+01,8.632324916598260e+01,
1006,1.106666666666148e-02,3.999999999998441e-04,-6.182344122924531e-05,-1.732623799381239e-03,1.045198817286157e+02,8.956186063252458e+00,-3.090794685169730e+01,1.138139914227225e+02,
1007,1.119999999998660e-02,-4.000000000001626e-04,-2.764436244509516e-04,-1.739624987131130e-03,-1.015305207618428e+02,-6.316164905866589e+00,2.521288632373746e+01,1.077428981797097e+02,
1008,1.119999999998761e-02,-3.000000000003254e-04,-2.500428292415139e-04,-1.742913472352489e-03,-7.709251189254815e+01,-3.488469346401248e+00,1.649604593436529e+01,8.065998515379086e+01,
1009,1.119999999998861e-02,-2.000000000004337e-04,-2.236791201106352e-04,-1.746267913470980e-03,-5.237742912325486e+01,-9.314646065148193e-01,8.294666381372279e+00,5.405453937062774e+01,
1010,1.119999999998962e-02,-1.000000000004879e-04,-1.973465146223057e-04,-1.749689725218164e-03,-2.738791188273422e+01,1.356974996415404e+00,6.055227745418976e-01,2.877038673735659e+01,
1011,1.119999999999063e-02,-5.421552963513765e-16,-1.710390497058826e-04,-1.753180316141097e-03,-2.126428202845249e+00,3.378921828933681e+00,-6.574650673455970e+00,1.425527989498307e+01,
1012,1.119999999999164e-02,9.999999999951214e-05,-1.447507815849407e-04,-1.756741088692120e-03,2.340472360085704e+01,5.136395232768724e+00,-1.324916020028386e+01,3.218528864893779e+01,
1013,1.119999999999264e-02,1.999999999995662e-04,-1.184757857071025e-04,-1.760373439319914e-03,4.920341326400355e+01,6.631361795174492e+00,-1.942135202908648e+01,5.762929137873758e+01,
1014,1.119999999999365e-02,2.999999999996748e-04,-9.220815667446971e-05,-1.764078758561920e-03,7.526767695049840e+01,7.865735616434545e+00,-2.509461188376798e+01,8.403558697354580e+01,
1015,1.119999999999466e-02,3.999999999998373e-04,-6.594200817495405e-05,-1.767858431138013e-03,1.015957156367184e+02,8.841378553128092e+00,-3.027236448913772e+01,1.107656591858195e+02,
1016,1.133333333332000e-02,-4.000000000001694e-04,-2.817367830224558e-04,-1.774740974097429e-03,-9.862246529529357e+01,-6.169651249389474e+00,2.457312527234571e+01,1.047037571799986e+02,
1017,1.133333333332098e-02,-3.000000000003387e-04,-2.551991203642358e-04,-1.778074266304699e-03,-7.492101429803623e+01,-3.365918007432823e+00,1.602352926465802e+01,7.840373566061079e+01,
1018,1.133333333332196e-02,-2.000000000004516e-04,-2.286980808836896e-04,-1.781471471328997e-03,-5.094016157332323e+01,-8.355200589536853e-01,7.987348717324952e+00,5.258960029713189e+01,
1019,1.133333333332294e-02,-1.000000000005083e-04,-2.022276910694361e-04,-1.784934023021900e-03,-2.668249695799955e+01,1.423627208233568e+00,4.614674819552576e-01,2.812127352371015e+01,
1020,1.133333333332393e-02,-5.647067015390750e-16,-1.757819961907090e-04,-1.788463349143701e-03,-2.150440085861384e+00,3.413556118099480e+00,-6.557273179932503e+00,1.424603032366348e+01,
1021,1.133333333332490e-02,9.999999999949181e-05,-1.493550602349338e-04,-1.792060871450602e-03,2.265375799817584e+01,5.136246983366254e+00,-1.307207414948974e+01,3.147029841665005e+01,
1022,1.133333333332588e-02,1.999999999995482e-04,-1.229409658461974e-04,-1.795728005783230e-03,4.772801323318035e+01,6.593628358791326e+00,-1.908617798092386e+01,5.611743382116092e+01,
1023,1.133333333332686e-02,2.999999999996612e-04,-9.653381426422113e-05,-1.799466162156410e-03,7.307040696341139e+01,7.787577282398064e+00,-2.460286841469850e+01,8.174993815339599e+01,
1024,1.133333333332784e-02,3.999999999998306e-04,-7.012772526413210e-05,-1.803276744850279e-03,9.867918439598819e+01,8.719919512561102e+00,-2.962546987283234e+01,1.077188154368167e+02,
1025,1.146666666665341e-02,-4.000000000001761e-04,-2.870641417048850e-04,-1.810042315405594e-03,-9.572161760505308e+01,-6.017361078560794e+00,2.392226823712393e+01,1.016658905897468e+02,
1026,1.146666666665436e-02,-3.000000000003523e-04,-2.603936091368150e-04,-1.813419523234215e-03,-7.275460972089085e+01,-3.239436440071971e+00,1.554253709097959e+01,7.614880926948354e+01,
1027,1.146666666665531e-02,-2.000000000004698e-04,-2.337592291988537e-04,-1.816858605442661e-03,-4.950595448717602e+01,-7.374004498531965e-01,7.674216895285594e+00,5.112676679308817e+01,
1028,1.146666666665626e-02,-1.000000000005286e-04,-2.071550371370297e-04,-1.820361014412766e-03,-2.597819089639813e+01,1.490788980960152e+00,3.142991320683814e-01,2.747617133591196e+01,
1029,1.146666666665721e-02,-5.872987643082417e-16,-1.805750863964292e-04,-1.823928196535035e-03,-2.173688899440906e+00,3.447122673955431e+00,-6.540268940616807e+00,1.423706409362597e+01,
1030,1.146666666665817e-02,9.999999999947150e-05,-1.540134485671858e-04,-1.827561592293310e-03,2.190534902514160e+01,5.133540434186854e+00,-1.289258383754707e+01,3.075985103091923e+01,
1031,1.146666666665911e-02,1.999999999995301e-04,-1.274642133313385e-04,-1.831262636350674e-03,4.625688633614804e+01,6.551931294298241e+00,-1.874578537639529e+01,5.460861957957569e+01,
1032,1.146666666666006e-02,2.999999999996475e-04,-1.009214884100510e-04,-1.835032757636700e-03,7.087905089764797e+01,7.704133731885684e+00,-2.410305618968601e+01,7.946634148891951e+01,
1033,1.146666666666102e-02,3.999999999998238e-04,-7.437939951160098e-05,-1.838873379435925e-03,9.577013348942224e+01,8.591935889924192e+00,-2.896762121695066e+01,1.046734467406708e+02,
1034,1.159999999998682e-02,-4.000000000001829e-04,-2.924245322409060e-04,-1.845523788044086e-03,-9.282782105145944e+01,-5.859422262193171e+00,2.326066497564399e+01,9.862928839044442e+01,
1035,1.159999999998774e-02,-3.000000000003658e-04,-2.656251206934536e-04,-1.848944004315064e-03,-7.059318365114009e+01,-3.109117420464220e+00,1.505332774572519e+01,7.389526304105785e+01,
1036,1.159999999998866e-02,-2.000000000004878e-04,-2.388613838387093e-04,-1.852424061102210e-03,-4.807473464527057e+01,-6.371643451704521e-01,7.355438735124024e+00,4.966621580029620e+01,
1037,1.159999999998958e-02,-1.000000000005489e-04,-2.121273655085859e-04,-1.855965428730650e-03,-2.527496096423030e+01,1.558435141189582e+00,1.640959629610912e-01,2.683540304319283e+01,
1038,1.159999999999051e-02,-6.098501694959402e-16,-1.854171271555954e-04,-1.859569571640668e-03,-2.196181650922485e+00,3.479628944166850e+00,-6.523648345345840e+00,1.422837927686293e+01,
1039,1.159999999999143e-02,9.999999999945122e-05,-1.587247478070153e-04,-1.863237948469837e-03,2.115945064280665e+01,5.128314940608563e+00,-1.271078730992020e+01,3.005418054205444e+01,
1040,1.159999999999235e-02,1.999999999995120e-04,-1.320443240198284e-04,-1.866972012136403e-03,4.478994816023739e+01,6.506341195505680e+00,-1.840035892590443e+01,5.310298858481035e+01,
1041,1.159999999999328e-02,2.999999999996339e-04,-1.053699698359536e-04,-1.870773209923949e-03,6.869348658047863e+01,7.615506176237505e+00,-2.359544557563741e+01,7.718484241036144e+01,
1042,1.159999999999420e-02,3.999999999998171e-04,-7.869581673817222e-05,-1.874642983567305e-03,9.286840356698868e+01,8.457558946171570e+00,-2.829917352180426e+01,1.016295408710896e+02,
1043,1.173333333332022e-02,-4.000000000001895e-04,-2.978167648395094e-04,-1.881180174687812e-03,-8.994091427864097e+01,-5.695966891696505e+00,2.258866227367520e+01,9.559394234723071e+01,
1044,1.173333333332111e-02,-3.000000000003795e-04,-2.708924587639477e-04,-1.884642476900780e-03,-6.843661798754140e+01,-2.975056962802909e+00,1.455615747791051e+01,7.164316334363302e+01,
1045,1.173333333332201e-02,-2.000000000005060e-04,-2.440033423093432e-04,-1.888162590268747e-03,-4.664642636248190e+01,-5.348725347693057e-01,7.031180821961933e+00,4.820814673279338e+01,
1046,1.173333333332290e-02,-1.000000000005693e-04,-2.171434677177912e-04,-1.891742002475907e-03,-2.457277311705857e+01,1.626539316138505e+00,1.093579249489740e-02,2.619932156256160e+01,
1047,1.173333333332380e-02,-6.325370999551994e-16,-1.903069042765993e-04,-1.895382195434401e-03,-2.217925198465337e+00,3.511082223741336e+00,-6.507421426498910e+00,1.421997399898915e+01,
1048,1.173333333332469e-02,9.999999999943085e-05,-1.634877382803312e-04,-1.899084645363941e-03,2.041601577158236e+01,5.120610759685501e+00,-1.252678150930148e+01,2.935354211002600e+01,
1049,1.173333333332559e-02,1.999999999994939e-04,-1.366800729935528e-04,-1.902850822872705e-03,4.332711205525325e+01,6.456930632347778e+00,-1.805008152298030e+01,5.160069815518877e+01,
1050,1.173333333332648e-02,2.999999999996203e-04,-1.098780286138468e-04,-1.906682193039454e-03,6.651358839505859e+01,7.521798890448013e+00,-2.308030444078641e+01,7.490549406601508e+01,
1051,1.173333333332738e-02,3.999999999998102e-04,-8.307574223539875e-05,-1.910580215496929e-03,8.997383060513286e+01,8.316924098035972e+00,-2.762047863575838e+01,9.858708708843315e+01,
1052,1.186666666665362e-02,-4.000000000001964e-04,-3.032396288084286e-04,-1.917006263533436e-03,-8.706073138988197e+01,-5.527131146112012e+00,2.190660400717725e+01,9.255984639799259e+01,
1053,1.186666666665449e-02,-3.000000000003929e-04,-2.761944063096664e-04,-1.920509714357694e-03,-6.628479115190245e+01,-2.837354211262050e+00,1.405128049846387e+01,6.939258742057818e+01,
1054,1.186666666665536e-02,-2.000000000005240e-04,-2.491838814799048e-04,-1.924068951405573e-03,-4.522095156794569e+01,-4.305879698791615e-01,6.701608534883059e+00,4.675278493380124e+01,
1055,1.186666666665622e-02,-1.000000000005896e-04,-2.222021147917300e-04,-1.927685479138815e-03,-2.387159202766514e+01,1.695073961870728e+00,-1.451039729706749e-01,2.556831301576969e+01,
1056,1.186666666665709e-02,-6.550614000885857e-16,-1.952431831905501e-04,-1.931360796365935e-03,-2.238926244213528e+00,3.541489643713000e+00,-6.491597866054063e+00,1.421184644075583e+01,
1057,1.186666666665796e-02,9.999999999941048e-05,-1.683011800642118e-04,-1.935096396319425e-03,1.967499634728418e+01,5.110469009865485e+00,-1.234066229954505e+01,2.865821418944429e+01,
1058,1.186666666665883e-02,1.999999999994759e-04,-1.413702152132998e-04,-1.938893766734185e-03,4.186828922279316e+01,6.403774071385239e+00,-1.769513428405858e+01,5.010192555429285e+01,
1059,1.186666666665969e-02,2.999999999996070e-04,-1.144444148216563e-04,-1.942754389927185e-03,6.433922739624548e+01,7.423119094401438e+00,-2.255789820513031e+01,7.262835857954747e+01,
1060,1.186666666666056e-02,3.999999999998036e-04,-8.751792142745015e-05,-1.946679742878322e-03,8.708624607119687e+01,8.170170772712000e+00,-2.693188531950403e+01,9.554607646558703e+01,
1061,1.199999999998703e-02,-4.000000000002033e-04,-3.086918931846057e-04,-1.952996848129721e-03,-8.418710210766341e+01,-5.353055145009636e+00,2.121483121348900e+01,8.952699712476236e+01,
1062,1.199999999998786e-02,-3.000000000004066e-04,-2.815297261574620e-04,-1.956540495893267e-03,-6.413757820764070e+01,-2.696111341016957e+00,1.353894902987354e+01,6.714362526745542e+01,
1063,1.199999999998870e-02,-2.000000000005420e-04,-2.544017582199726e-04,-1.960137909304637e-03,-4.379822987114054e+01,-3.243756987838031e-01,6.366886077625773e+00,4.530038575885639e+01,
1064,1.199999999998954e-02,-1.000000000006099e-04,-2.273020578917346e-04,-1.963790609024193e-03,-2.317138111019278e+01,1.764010393699587e+00,-3.039463264229223e-01,2.494280022230407e+01,
1065,1.199999999999038e-02,-6.776805679120645e-16,-2.002247095956677e-04,-1.967500110183718e-03,-2.259191324629188e+00,3.570858159297790e+00,-6.476187003981092e+00,1.420399484043738e+01,
1066,1.199999999999122e-02,9.999999999939021e-05,-1.731638136349045e-04,-1.971267922461268e-03,1.893634336742914e+01,5.097931623714786e+00,-1.215252449091579e+01,2.796850095371225e+01,
1067,1.199999999999206e-02,1.999999999994578e-04,-1.461134861703807e-04,-1.975095550157231e-03,4.041338879863287e+01,6.346947795541289e+00,-1.733569658935942e+01,4.860687099135708e+01,
1068,1.199999999999290e-02,2.999999999995933e-04,-1.190678591986090e-04,-1.978984492271589e-03,6.217027143689614e+01,7.319576843002732e+00,-2.202848989804107e+01,7.035350855632544e+01,
1069,1.199999999999374e-02,3.999999999997967e-04,-9.202108053006069e-05,-1.982936242582285e-03,8.420547707281739e+01,8.017442254671721e+00,-2.623373931269530e+01,9.250650227284994e+01,
1070,1.213333333332079e-02,-4.000000000002100e-04,-3.141723073628364e-04,-1.989146727203119e-03,-8.131985194961345e+01,-5.173882817521754e+00,2.051368216217685e+01,8.649539431940126e+01,
1071,1.213333333332161e-02,-3.000000000004200e-04,-2.868971616315539e-04,-1.992729606379786e-03,-6.199485097073679e+01,-2.551433454356979e+00,1.301941336148230e+01,6.489638189556661e+01,
1072,1.213333333332242e-02,-2.000000000005601e-04,-2.596557100347371e-04,-1.996364234908371e-03,-4.237817862787691e+01,-2.163028012088368e-01,6.027176510337935e+00,4.385123943482618e+01,
1073,1.213333333332323e-02,-1.000000000006302e-04,-2.324420289519224e-04,-2.000052149071463e-03,-2.247210255140785e+01,1.833318806409179e+00,-4.655146503129283e-01,2.432324655426681e+01,
1074,1.213333333332404e-02,-7.002861832083873e-16,-2.052502100992447e-04,-2.003794879753281e-03,-2.278726784741393e+00,3.599194549373029e+00,-6.461197847413557e+00,1.419641749540087e+01,
1075,1.213333333332485e-02,9.999999999936987e-05,-1.780743605132713e-04,-2.007593952512300e-03,1.820000694490469e+01,5.083041307662914e+00,-1.196246186774731e+01,2.728473498639514e+01,
1076,1.213333333332566e-02,1.999999999994397e-04,-1.509086025356198e-04,-2.011450887655045e-03,3.896231794449699e+01,6.286529831639539e+00,-1.697194612811633e+01,4.711576116650443e+01,
1077,1.213333333332647e-02,2.999999999995798e-04,-1.237470737978176e-04,-2.015367200311025e-03,6.000658527968789e+01,7.211284912469829e+00,-2.149234021585750e+01,6.808102887502096e+01,
1078,1.213333333332728e-02,3.999999999997898e-04,-9.658392720672085e-05,-2.019344400508718e-03,8.133134650571381e+01,7.858885542334840e+00,-2.552638340318532e+01,8.946836043317718e+01,
1079,1.226666666665456e-02,-4.000000000002168e-04,-3.196796017226038e-04,-2.025450704478396e-03,-7.845880238286898e+01,-4.989761755595445e+00,1.980349243350411e+01,8.346504166983557e+01,
1080,1.226666666665534e-02,-3.000000000004337e-04,-2.922954371834425e-04,-2.029071836173053e-03,-5.985647813011366e+01,-2.403428484953437e+00,1.249292190044492e+01,6.265098007191675e+01,
1081,1.226666666665612e-02,-2.000000000005782e-04,-2.649444556980296e-04,-2.032742705126584e-03,-4.096071300837235e+01,-1.064383236602220e-01,5.682641782523702e+00,4.240567686675744e+01,
1082,1.226666666665691e-02,-1.000000000006506e-04,-2.376207413154356e-04,-2.036464862669802e-03,-2.177371732590542e+01,1.902968313736004e+00,-6.297327033724092e-01,2.371016018480663e+01,
1083,1.226666666665769e-02,-7.228375883960858e-16,-2.103183928571591e-04,-2.040239854870705e-03,-2.297538769954386e+00,3.626505408941066e+00,-6.446639077416968e+00,1.418911276336273e+01,
1084,1.226666666665847e-02,9.999999999934951e-05,-1.830315239076559e-04,-2.044069222605015e-03,1.746593636325086e+01,5.065841505864110e+00,-1.177056721570587e+01,2.660728025916945e+01,
1085,1.226666666665926e-02,1.999999999994216e-04,-1.557542628057050e-04,-2.047954501627833e-03,3.751498193405434e+01,6.222599879873535e+00,-1.660405894080292e+01,4.562885345769106e+01,
1086,1.226666666666004e-02,2.999999999995662e-04,-1.284807526361041e-04,-2.051897222646377e-03,5.784803072344681e+01,7.098358702903877e+00,-2.094970758088603e+01,6.581101884252524e+01,
1087,1.226666666666082e-02,3.999999999997831e-04,-1.012051512220619e-04,-2.055898911393670e-03,7.846367319885678e+01,7.694651208096960e+00,-2.481015749881271e+01,8.643165007097929e+01,
1088,1.239999999998833e-02,-4.000000000002236e-04,-3.252124882533363e-04,-2.061903588495448e-03,-7.560377099540226e+01,-4.800843074905078e+00,1.908459499660846e+01,8.043594760337824e+01,
1089,1.239999999998908e-02,-3.000000000004472e-04,-2.977232590200284e-04,-2.065561980927414e-03,-5.772232534419336e+01,-2.252207076309989e+00,1.195972122894648e+01,6.040756366672489e+01,
1090,1.239999999998984e-02,-2.000000000005962e-04,-2.702666958834253e-04,-2.069268102649711e-03,-3.954574606311223e+01,5.146801594413386e-03,5.333442763189064e+00,4.096407661876876e+01,
1091,1.239999999999059e-02,-1.000000000006709e-04,-2.428368903685764e-04,-2.073023519469642e-03,-2.107618522942226e+01,1.972926991205795e+00,-7.965246077432873e-01,2.310409876974361e+01,
1092,1.239999999999135e-02,-7.454703087467207e-16,-2.154279482111759e-04,-2.076829792072390e-03,-2.315633213443959e+00,3.652797160833018e+00,-6.432519050973137e+00,1.418207906116453e+01,
1093,1.239999999999210e-02,9.999999999932917e-05,-1.880339893544370e-04,-2.080688476089639e-03,1.673408012603492e+01,5.046376373579395e+00,-1.157693233728204e+01,2.593653539648634e+01,
1094,1.239999999999286e-02,1.999999999994035e-04,-1.606491479470112e-04,-2.084601122169243e-03,3.607128424486499e+01,6.155239249600479e+00,-1.623220945612537e+01,4.414644089242977e+01,
1095,1.239999999999361e-02,2.999999999995527e-04,-1.332675723412993e-04,-2.088569276045889e-03,5.569446671864911e+01,6.980916131619260e+00,-2.040084819569897e+01,6.354359479295243e+01,
1096,1.239999999999437e-02,3.999999999997764e-04,-1.058834250926310e-04,-2.092594478612624e-03,7.560227205952611e+01,7.524893263632361e+00,-2.408539869630280e+01,8.339637417273644e+01,
1097,1.253333333332209e-02,-4.000000000002304e-04,-3.307696611780716e-04,-2.098500192421790e-03,-7.275457163952163e+01,-4.607281249722488e+00,1.835732027972538e+01,7.740812631036405e+01,
1098,1.253333333332282e-02,-3.000000000004608e-04,-3.031793157299670e-04,-2.102194841406446e-03,-5.559225535778468e+01,-2.097882450772786e+00,1.142005614246940e+01,5.816630177261624e+01,
1099,1.253333333332355e-02,-2.000000000006143e-04,-2.756211137934171e-04,-2.105935215757691e-03,-3.813318880215841e+01,1.183798692666422e-01,4.979739267231135e+00,3.952687337120356e+01,
1100,1.253333333332427e-02,-1.000000000006912e-04,-2.480891541729715e-04,-2.109722895189679e-03,-2.037946492772857e+01,2.043161956741748e+00,-9.658148313285149e-01,2.250567460783675e+01,
1101,1.253333333332500e-02,-7.680420427251533e-16,-2.205775493240855e-04,-2.113559454440188e-03,-2.333015843336122e+00,3.678076097889904e+00,-6.418845786939250e+00,1.417531485618233e+01,
1102,1.253333333332573e-02,9.999999999930885e-05,-1.930804253561958e-04,-2.117446463337462e-03,1.600438600158584e+01,5.024690772902012e+00,-1.138164804805839e+01,2.527293723480253e+01,
1103,1.253333333332645e-02,1.999999999993855e-04,-1.655919220369221e-04,-2.121385486867979e-03,3.463112665269951e+01,6.084530810220558e+00,-1.585657050274819e+01,4.266885804223418e+01,
1104,1.253333333332718e-02,2.999999999995391e-04,-1.381061927967913e-04,-2.125378085245171e-03,5.354574951664663e+01,6.859077551671702e+00,-1.984601608209190e+01,6.127889323811077e+01,
1105,1.253333333332791e-02,3.999999999997696e-04,-1.106174047349105e-04,-2.129425813978924e-03,7.274695423512132e+01,7.349769033360500e+00,-2.335244134364886e+01,8.036254039754870e+01,
1106,1.266666666665586e-02,-4.000000000002371e-04,-3.363497975757497e-04,-2.135235333861815e-03,-6.991101455475591e+01,-4.409233913769833e+00,1.762199621611160e+01,7.438159899936586e+01,
1107,1.266666666665655e-02,-3.000000000004743e-04,-3.086622789085291e-04,-2.138965223290454e-03,-5.346612810400458e+01,-1.940570211025013e+00,1.087416966295213e+01,5.592739382107361e+01,
1108,1.266666666665726e-02,-2.000000000006324e-04,-2.810063757871435e-04,-2.142738838125492e-03,-3.672295030642481e+01,2.331865777936264e-01,4.621690062307658e+00,3.809456824185337e+01,
1109,1.266666666665795e-02,-1.000000000007115e-04,-2.533761940961722e-04,-2.146557771420247e-03,-1.968351405800460e+01,2.113639513560226e+00,-1.137528161139171e+00,2.191556034172798e+01,
1110,1.266666666665865e-02,-7.906205529671639e-16,-2.257658528131638e-04,-2.150423611402540e-03,-2.349692245662611e+00,3.702348471682607e+00,-6.405626920435523e+00,1.416881864587297e+01,
1111,1.266666666665935e-02,9.999999999928856e-05,-1.981694840179064e-04,-2.154337941539802e-03,1.527680103522940e+01,5.000830302664856e+00,-1.118480412236123e+01,2.461696462846055e+01,
1112,1.266666666666005e-02,1.999999999993674e-04,-1.705812329027807e-04,-2.158302340604842e-03,3.319440934205208e+01,6.010558965436493e+00,-1.547731327314518e+01,4.119648802893916e+01,
1113,1.266666666666075e-02,2.999999999995255e-04,-1.429952577834280e-04,-2.162318382742558e-03,5.140173284882233e+01,6.732965670981997e+00,-1.928546308137837e+01,5.901707470080958e+01,
1114,1.266666666666145e-02,3.999999999997627e-04,-1.154057301105154e-04,-2.166387637537643e-03,6.989752734082441e+01,7.169439050883098e+00,-2.261161708938106e+01,7.733016209796686e+01,
1115,1.279999999998962e-02,-4.000000000002439e-04,-3.419515580021097e-04,-2.172103834663583e-03,-6.707290641378941e+01,-4.206861578064999e+00,1.687894823158686e+01,7.135639541698886e+01,
1116,1.279999999999029e-02,-3.000000000004879e-04,-3.141708037812569e-04,-2.175867936981510e-03,-5.134380082247807e+01,-1.780388046980601e+00,1.032230298966295e+01,5.369107599961062e+01,
1117,1.279999999999097e-02,-2.000000000006504e-04,-2.864211320071454e-04,-2.179673768625805e-03,-3.531493791663902e+01,3.494913206175521e-01,4.259452846393736e+00,3.666774150424169e+01,
1118,1.279999999999164e-02,-1.000000000007319e-04,-2.586966554414775e-04,-2.183522935423186e-03,-1.898828944677109e+01,2.184325399408869e+00,-1.311589662612527e+00,2.133449528807673e+01,
1119,1.279999999999231e-02,-8.131990632091746e-16,-2.309914993826465e-04,-2.187417038531381e-03,-2.365668029750573e+00,3.725620671943840e+00,-6.392869591281487e+00,1.416258890499601e+01,
1120,1.279999999999298e-02,9.999999999926818e-05,-2.032998016816882e-04,-2.191357674502158e-03,1.455127150589083e+01,4.974841388400579e+00,-1.098648914479389e+01,2.396914242750186e+01,
1121,1.279999999999365e-02,1.999999999993494e-04,-1.756157127586488e-04,-2.195346435344549e-03,3.176103102019716e+01,5.933409654149663e+00,-1.509460718275709e+01,3.972977082031661e+01,
1122,1.279999999999432e-02,2.999999999995120e-04,-1.479333956185642e-04,-2.199384908589163e-03,4.926226819717402e+01,6.602705495622826e+00,-1.871943877908404e+01,5.675832839947878e+01,
1123,1.279999999999499e-02,3.999999999997560e-04,-1.202470258681727e-04,-2.203474677354209e-03,6.705379580058089e+01,6.984066970524600e+00,-2.186325490299420e+01,7.429925962975469e+01,
1124,1.293333333332338e-02,-4.000000000002507e-04,-3.475735871091257e-04,-2.209100520724627e-03,-6.424005022571563e+01,-4.000327211737853e+00,1.612849911699738e+01,6.833255566615890e+01,
1125,1.293333333332403e-02,-3.000000000005013e-04,-3.197035298268016e-04,-2.212897797407296e-03,-4.922512818544465e+01,-1.617455260837690e+00,9.764695335972704e+00,5.145762937907093e+01,
1126,1.293333333332468e-02,-2.000000000006686e-04,-2.918640170062193e-04,-2.216734811129771e-03,-3.390905757674125e+01,4.672176610597734e-01,3.893184167823164e+00,3.524706840410146e+01,
1127,1.293333333332532e-02,-1.000000000007522e-04,-2.640491680783422e-04,-2.220613179928577e-03,-1.829374753536828e+01,2.255185214997904e+00,-1.487924611135536e+00,2.076329250799986e+01,
1128,1.293333333332596e-02,-8.358250072962314e-16,-2.362531144566630e-04,-2.224534517334595e-03,-2.380949189546962e+00,3.747899545963057e+00,-6.380580225902740e+00,1.415662399371711e+01,
1129,1.293333333332660e-02,9.999999999924785e-05,-2.084699995611118e-04,-2.228500432432792e-03,1.382774276584894e+01,4.946771457348346e+00,-1.078679019318702e+01,2.333004547937603e+01,
1130,1.293333333332725e-02,1.999999999993314e-04,-1.806939788404169e-04,-2.232512529921377e-03,3.033088903707694e+01,5.853170386326807e+00,-1.470861955882175e+01,3.826921305239887e+01,
1131,1.293333333332789e-02,2.999999999994984e-04,-1.529192197920557e-04,-2.236572410172638e-03,4.712720519645026e+01,6.468424279391896e+00,-1.814819029998194e+01,5.450287800032935e+01,
1132,1.293333333332854e-02,3.999999999997493e-04,-1.251399019817555e-04,-2.240681669297120e-03,6.421556143460704e+01,6.793819513809125e+00,-2.110768104726987e+01,7.126986208764420e+01,
1133,1.306666666665716e-02,-4.000000000002575e-04,-3.532145142623628e-04,-2.246220221798434e-03,-6.141224501293339e+01,-3.789795616367596e+00,1.537096869202667e+01,6.531013235773482e+01,
1134,1.306666666665777e-02,-3.000000000005150e-04,-3.252590813995576e-04,-2.250049623825320e-03,-4.710996249140376e+01,-1.451892047461814e+00,9.201583576681433e+00,4.922739032224418e+01,
1135,1.306666666665838e-02,-2.000000000006867e-04,-2.973336503758745e-04,-2.253916774306743e-03,-3.250521441567898e+01,5.862890928346096e-01,3.523039253656309e+00,3.383333898368856e+01,
1136,1.306666666665900e-02,-1.000000000007725e-04,-2.694323470755083e-04,-2.257823302928582e-03,-1.759984515678310e+01,2.326185101795544e+00,-1.666458377460428e+00,2.020284672913755e+01,
1137,1.306666666665962e-02,-8.584035175382421e-16,-2.415493088148337e-04,-2.261770835043559e-03,-2.395542805977311e+00,3.769192901777327e+00,-6.368764141488407e+00,1.415092198784586e+01,
1138,1.306666666666023e-02,9.999999999922759e-05,-2.136786843769208e-04,-2.265760991724722e-03,1.310615886084524e+01,4.916669216813239e+00,-1.058579226633949e+01,2.270030247054165e+01,
1139,1.306666666666085e-02,1.999999999993132e-04,-1.858146340399744e-04,-2.269795389817263e-03,2.890387950118631e+01,5.769930313916236e+00,-1.431951504659984e+01,3.681539962676476e+01,
1140,1.306666666666146e-02,2.999999999994850e-04,-1.579513295988382e-04,-2.273875641993384e-03,4.499639226183763e+01,6.330251466331553e+00,-1.757196188333194e+01,5.225098871538206e+01,
1141,1.306666666666208e-02,3.999999999997425e-04,-1.300829543830006e-04,-2.278003356813826e-03,6.138262446202836e+01,6.598866443306290e+00,-2.034521898288455e+01,6.824200967512606e+01,
1142,1.319999999999092e-02,-4.000000000002642e-04,-3.588729541548790e-04,-2.283457771303559e-03,-5.858928509698958e+01,-3.575432510912967e+00,1.460667313392392e+01,6.228919309581516e+01,
1143,1.319999999999150e-02,-3.000000000005285e-04,-3.308360683525350e-04,-2.287318239629112e-03,-4.499815392629198e+01,-1.283818419430717e+00,8.633201610540816e+00,4.700076391931741e+01,
1144,1.319999999999209e-02,-2.000000000007046e-04,-3.028286373786507e-04,-2.291214471423916e-03,-3.110331376010792e+01,7.066301305529055e-01,3.149171710754886e+00,3.242748309971443e+01,
1145,1.319999999999268e-02,-1.000000000007929e-04,-2.748447933401707e-04,-2.295148107468263e-03,-1.690654087006464e+01,2.397292712461607e+00,-1.847116251681963e+00,1.965414319604848e+01,
1146,1.319999999999327e-02,-8.809820277802527e-16,-2.468786792340202e-04,-2.299120784394776e-03,-2.409458265862223e+00,3.789510220136150e+00,-6.357424911485692e+00,1.414548041994744e+01,
1147,1.319999999999385e-02,9.999999999920722e-05,-2.189244489968919e-04,-2.303134134729625e-03,1.238646181636724e+01,4.884585031990338e+00,-1.038357734030451e+01,2.208059937629217e+01,
1148,1.319999999999445e-02,1.999999999992952e-04,-1.909762675399534e-04,-2.307189786930757e-03,2.747989732958872e+01,5.683780287221371e+00,-1.392745462069125e+01,3.536900743546859e+01,
1149,1.319999999999503e-02,2.999999999994713e-04,-1.630283107676898e-04,-2.311289365431884e-03,4.286967752186998e+01,6.188318582880509e+00,-1.699099415504733e+01,5.000297614260970e+01,
1150,1.319999999999561e-02,3.999999999997357e-04,-1.350747655866887e-04,-2.315434490699302e-03,5.855478517516017e+01,6.399380555656574e+00,-1.957618918489455e+01,6.521575701496737e+01,
1151,1.333333333332468e-02,-4.000000000002710e-04,-3.645475074146544e-04,-2.320808006136585e-03,-5.577095881865625e+01,-3.357403284057793e+00,1.383592382840781e+01,5.926982332115094e+01,
1152,1.333333333332524e-02,-3.000000000005421e-04,-3.364330866606963e-04,-2.324698472156960e-03,-4.288955099730831e+01,-1.113352804946592e+00,8.059779351091221e+00,4.477824145900096e+01,
1153,1.333333333332581e-02,-2.000000000007228e-04,-3.083475695869053e-04,-2.328622720145594e-03,-2.970326270017172e+01,8.281677195449859e-01,2.771733067393218e+00,3.103060199644097e+01,
1154,1.333333333332637e-02,-1.000000000008132e-04,-2.802850942673162e-04,-2.332582401432579e-03,-1.621379702426227e+01,2.468478416911073e+00,-2.029823188577528e+00,1.911826729511377e+01,
1155,1.333333333332692e-02,-9.035605380222633e-16,-2.522398091408533e-04,-2.336579163404484e-03,-2.422709184892867e+00,3.808863493209611e+00,-6.346563449620995e+00,1.414029591354912e+01,
1156,1.333333333332748e-02,9.999999999918692e-05,-2.242058730838976e-04,-2.340614649522410e-03,1.166859039782294e+01,4.850571297899340e+00,-1.018022300732206e+01,2.147168242970636e+01,
1157,1.333333333332804e-02,1.999999999992771e-04,-1.961774554513456e-04,-2.344690499335769e-03,2.605883615559778e+01,5.594812810762930e+00,-1.353259412563842e+01,3.393082177806779e+01,
1158,1.333333333332860e-02,2.999999999994577e-04,-1.681487360859915e-04,-2.348808348506843e-03,4.074691009941419e+01,6.042758974819074e+00,-1.640552302581850e+01,4.775921741696969e+01,
1159,1.333333333332916e-02,3.999999999997289e-04,-1.401139053052578e-04,-2.352969828858252e-03,5.573184653666869e+01,6.195537623153736e+00,-1.880090887886846e+01,6.219117782661172e+01,
1160,1.346666666665845e-02,-4.000000000002778e-04,-3.702367612000233e-04,-2.358265766486753e-03,-5.295704659498954e+01,-3.135871570732019e+00,1.305902563386966e+01,5.625212958477182e+01,
1161,1.346666666665898e-02,-3.000000000005556e-04,-3.420487190436998e-04,-2.362185152500549e-03,-4.078400118523875e+01,-9.406105322147722e-01,7.481541346826742e+00,4.256042319369711e+01,
1162,1.346666666665952e-02,-2.000000000007409e-04,-3.138890255303103e-04,-2.366136342329205e-03,-2.830497231663655e+01,9.508326329560306e-01,2.390872184203198e+00,2.964400786758417e+01,
1163,1.346666666666004e-02,-1.000000000008335e-04,-2.857518244033608e-04,-2.370120997327084e-03,-1.552158259920570e+01,2.539716401995038e+00,-2.214503505774026e+00,1.859641429736165e+01,
1164,1.346666666666058e-02,-9.261932583728982e-16,-2.576312692800764e-04,-2.374140775134875e-03,-2.435316114746042e+00,3.827267857850909e+00,-6.336176910491324e+00,1.413536378654620e+01,
1165,1.346666666666111e-02,9.999999999916657e-05,-2.295215237570358e-04,-2.378197329656500e-03,1.095247822655024e+01,4.814682539816035e+00,-9.975800816142321e+00,2.087436091442026e+01,
1166,1.346666666666164e-02,1.999999999992590e-04,-2.014167614574590e-04,-2.382292311031667e-03,2.464058786290177e+01,5.503121646410471e+00,-1.313508244939825e+01,3.250175652172211e+01,
1167,1.346666666666217e-02,2.999999999994444e-04,-1.733111660210219e-04,-2.386427365627069e-03,3.862794161884570e+01,5.893707199503760e+00,-1.581577827068825e+01,4.552016555605581e+01,
1168,1.346666666666270e-02,3.999999999997222e-04,-1.451989310492109e-04,-2.390604136065790e-03,5.291361789084804e+01,5.987516158832747e+00,-1.801969177444349e+01,5.916837153705715e+01,
1169,1.359999999999221e-02,-4.000000000002846e-04,-3.759392897738210e-04,-2.395825895642400e-03,-5.014731841225687e+01,-2.910998203737815e+00,1.227627467927494e+01,5.323624354559377e+01,
1170,1.359999999999272e-02,-3.000000000005692e-04,-3.476815355842725e-04,-2.399773115302998e-03,-3.868135189147067e+01,-7.657030176184725e-01,6.898705291310801e+00,4.034804788723599e+01,
1171,1.359999999999322e-02,-2.000000000007589e-04,-3.194515713511056e-04,-2.403750163809123e-03,-2.690836030638227e+01,1.074559921273569e+00,2.006734685583032e+00,2.826927237939877e+01,
1172,1.359999999999372e-02,-1.000000000008538e-04,-2.912435461250711e-04,-2.407758712047208e-03,-1.482987643570753e+01,2.610984683078439e+00,-2.401080655155788e+00,1.808989745175560e+01,
1173,1.359999999999423e-02,-9.486565721340823e-16,-2.630516184013811e-04,-2.411800427451641e-03,-2.447309716025194e+00,3.844741186741488e+00,-6.326257825737899e+00,1.413067786321120e+01,
1174,1.359999999999473e-02,9.999999999914620e-05,-2.348699562701255e-04,-2.415876973914325e-03,1.023805119288340e+01,4.776974581871057e+00,-9.770374906327721e+00,2.028951110776550e+01,
1175,1.359999999999524e-02,1.999999999992409e-04,-2.066927374689110e-04,-2.419990011692734e-03,2.322504138036350e+01,5.408800628324228e+00,-1.273505988647313e+01,3.108288010759063e+01,
1176,1.359999999999574e-02,2.999999999994307e-04,-1.785141493404193e-04,-2.424141197347841e-03,3.651262738997715e+01,5.741297726729612e+00,-1.522198218284290e+01,4.328636847257350e+01,
1177,1.359999999999624e-02,3.999999999997154e-04,-1.503283887106944e-04,-2.428332183739953e-03,5.009991951262424e+01,5.775496710136657e+00,-1.723284801845288e+01,5.614747242825863e+01,
1178,1.373333333332598e-02,-4.000000000002914e-04,-3.816536550422098e-04,-2.433483239762370e-03,-4.734153146845953e+01,-2.682941955013407e+00,1.148795637386814e+01,5.022232754385315e+01,
1179,1.373333333332646e-02,-3.000000000005827e-04,-3.533300943323902e-04,-2.437457198519707e-03,-3.658145157935882e+01,-5.887395536152342e-01,6.311481284736182e+00,3.814203066170452e+01,
1180,1.373333333332694e-02,-2.000000000007770e-04,-3.250337614577610e-04,-2.441459014147634e-03,-2.551335300869856e+01,1.199286208788741e+00,1.619462838196604e+00,2.690828373384003e+01,
1181,1.373333333332741e-02,-1.000000000008742e-04,-2.967588103248308e-04,-2.445490366626184e-03,-1.413866932864417e+01,2.682261926045017e+00,-2.589477427982255e+00,1.760015061512537e+01,
1182,1.373333333332788e-02,-9.713367263297634e-16,-2.684994039589039e-04,-2.449552932775880e-03,-2.458733157719335e+00,3.861300873529618e+00,-6.316794605251413e+00,1.412623114973978e+01,
1183,1.373333333332836e-02,9.999999999912588e-05,-2.402497147071589e-04,-2.453648386067470e-03,9.525224594341447e+00,4.737501553336720e+00,-9.564002497911613e+00,1.971808477103204e+01,
1184,1.373333333332884e-02,1.999999999992229e-04,-2.120039242947678e-04,-2.457778396439526e-03,2.181208004537743e+01,5.311940889578080e+00,-1.233265822277122e+01,2.967545159756611e+01,
1185,1.373333333332931e-02,2.999999999994173e-04,-1.837562237387773e-04,-2.461944630158395e-03,3.440082586184410e+01,5.585662426191557e+00,-1.462434937029459e+01,4.105849512392180e+01,
1186,1.373333333332979e-02,3.999999999997085e-04,-1.555008131325463e-04,-2.466148749755064e-03,4.729058666672569e+01,5.559660156928881e+00,-1.644068487454866e+01,5.312866179326292e+01,
1187,1.386666666665975e-02,-4.000000000002981e-04,-3.873784070396460e-04,-2.471232647553800e-03,-4.453943007297039e+01,-2.451865168806225e+00,1.069434554982630e+01,4.721058384005211e+01,
1188,1.386666666666020e-02,-3.000000000005963e-04,-3.589929418744178e-04,-2.475232243085945e-03,-3.448415067440919e+01,-4.098356523313382e-01,5.720073888765276e+00,3.594351019858158e+01,
1189,1.386666666666065e-02,-2.000000000007951e-04,-3.306341391480305e-04,-2.479257726312271e-03,-2.411988407735173e+01,1.324939497098746e+00,1.229196813131717e+00,2.556330858782884e+01,
1190,1.386666666666109e-02,-1.000000000008945e-04,-3.022961570692387e-04,-2.483310785945605e-03,-1.344796126164155e+01,2.753516928943070e+00,-2.779617401765677e+00,1.712871819958468e+01,
1191,1.386666666666153e-02,-9.939152365717741e-16,-2.739731627956366e-04,-2.487393107841627e-03,-2.469640566797997e+00,3.876954492739045e+00,-6.307775862228322e+00,1.412201877077711e+01,
1192,1.386666666666199e-02,9.999999999910563e-05,-2.456593326811115e-04,-2.491506374681297e-03,8.813901254006552e+00,4.696308489725397e+00,-9.356739669566473e+00,1.916112938082242e+01,
1193,1.386666666666243e-02,1.999999999992048e-04,-2.173488523334316e-04,-2.495652265681934e-03,2.040157640621569e+01,5.212625255386651e+00,-1.192800591834234e+01,2.828097483847243e+01,
1194,1.386666666666288e-02,2.999999999994036e-04,-1.890359164861526e-04,-2.499832456356467e-03,3.229239323931766e+01,5.426926077282993e+00,-1.402309011042368e+01,3.883737311938865e+01,
1195,1.386666666666333e-02,3.999999999997018e-04,-1.607147286778031e-04,-2.504048618352691e-03,4.448546954113205e+01,5.340184124090762e+00,-1.564350911389426e+01,5.011218294953430e+01,
1196,1.399999999999352e-02,-4.000000000003050e-04,-3.931120843415028e-04,-2.509068969743839e-03,-4.174075232301443e+01,-2.217949990082212e+00,9.895713037084839e+00,4.420127204388304e+01,
1197,1.399999999999393e-02,-3.000000000006098e-04,-3.646686138272035e-04,-2.513093092386482e-03,-3.238930099159406e+01,-2.291351619753552e-01,5.124691148557290e+00,3.375390501350888e+01,
1198,1.399999999999436e-02,-2.000000000008131e-04,-3.362512371340377e-04,-2.517141136207115e-03,-2.272788403471275e+01,1.451413584501899e+00,8.360791405668118e-01,2.423704905048721e+01,
1199,1.399999999999477e-02,-1.000000000009149e-04,-3.078541161493740e-04,-2.521214798384632e-03,-1.275774601863950e+01,2.824683467357912e+00,-2.971429191595246e+00,1.667722022546740e+01,
1200,1.399999999999519e-02,-1.016493746813785e-15,-2.794714217393384e-04,-2.525315773487232e-03,-2.480084790240531e+00,3.891678648732182e+00,-6.299203279322361e+00,1.411804579745836e+01,
1201,1.399999999999561e-02,9.999999999908526e-05,-2.510973339923539e-04,-2.529445753035639e-03,8.103973898367347e+00,4.653415980594636e+00,-9.148659005818150e+00,1.861983341393940e+01,
1202,1.399999999999603e-02,1.999999999991867e-04,-2.227260422800623e-04,-2.533606425131724e-03,1.899338289582746e+01,5.110918077615066e+00,-1.152124498486643e+01,2.690128572083766e+01,
1203,1.399999999999645e-02,2.999999999993900e-04,-1.943517451298951e-04,-2.537799474115041e-03,3.018716726090182e+01,5.265198984349931e+00,-1.341842199702396e+01,3.662404535736495e+01,
1204,1.399999999999687e-02,3.999999999996951e-04,-1.659686498430988e-04,-2.542026580250496e-03,4.168442097919014e+01,5.117236075960239e+00,-1.484163287698870e+01,4.709835748270052e+01,
1205,1.413333333332728e-02,-4.000000000003116e-04,-3.988532143990224e-04,-2.546987058151686e-03,-3.894525239848150e+01,-1.981434743089024e+00,9.092346988697722e+00,4.119474372675022e+01,
1206,1.413333333332767e-02,-3.000000000006235e-04,-3.703556351882288e-04,-2.551034591351204e-03,-3.029675119902101e+01,-4.685801090394759e-02,4.525568142674002e+00,3.157497594533422e+01,
1207,1.413333333332806e-02,-2.000000000008312e-04,-3.418835778341731e-04,-2.555104081941360e-03,-2.133725015229577e+01,1.578514243603141e+00,4.402657000801244e-01,2.293267523415042e+01,
1208,1.413333333332845e-02,-1.000000000009352e-04,-3.134312073514627e-04,-2.559197235375885e-03,-1.206796910223302e+01,2.895608590780810e+00,-3.164855956660579e+00,1.624727393381736e+01,
1209,1.413333333332885e-02,-1.039099362110107e-15,-2.849926979496377e-04,-2.563315754538076e-03,-2.490081508397525e+00,3.905377014772207e+00,-6.291120936625932e+00,1.411434377782392e+01,
1210,1.413333333332923e-02,9.999999999906498e-05,-2.565622331423507e-04,-2.567461339292326e-03,7.395339131859338e+00,4.608791699474143e+00,-8.939890594343630e+00,1.809561886060456e+01,
1211,1.413333333332963e-02,1.999999999991687e-04,-2.281340058288820e-04,-2.571635686158130e-03,1.758731696960049e+01,5.006848521369457e+00,-1.111257136685185e+01,2.553869918203429e+01,
1212,1.413333333333002e-02,2.999999999993765e-04,-1.997022183071104e-04,-2.575840487922457e-03,2.808492973875150e+01,5.100565977874731e+00,-1.281059852675760e+01,3.441985932492115e+01,
1213,1.413333333333041e-02,3.999999999996883e-04,-1.712610820144715e-04,-2.580077433112372e-03,3.888725600220495e+01,4.890960901825134e+00,-1.403538595423796e+01,4.408759821185307e+01,
1214,1.426666666666105e-02,-4.000000000003184e-04,-4.046003138361796e-04,-2.584981764066075e-03,-3.615275334051547e+01,-1.742683664266255e+00,8.284603106848024e+00,3.819151070167702e+01,
1215,1.426666666666141e-02,-3.000000000006369e-04,-3.760525204379935e-04,-2.589051584914179e-03,-2.820633455772431e+01,1.366097103282582e-01,3.923017457849576e+00,2.940888902492415e+01,
1216,1.426666666666177e-02,-2.000000000008492e-04,-3.475296731923144e-04,-2.593141402665426e-03,-1.994778096762121e+01,1.705858252935124e+00,4.194933723806427e-02,2.165380175584866e+01,
1217,1.426666666666214e-02,-1.000000000009555e-04,-3.190259401309878e-04,-2.597252930827856e-03,-1.137843649932256e+01,2.965956637674146e+00,-3.359872474843398e+00,1.584034679726297e+01,
1218,1.426666666666250e-02,-1.061701589274641e-15,-2.905354987049546e-04,-2.601387879876921e-03,-2.499526698666110e+00,3.917804324982488e+00,-6.283672271222031e+00,1.411099877101480e+01,
1219,1.426666666666287e-02,9.999999999904455e-05,-2.620525354831890e-04,-2.605547957122763e-03,6.687939141142769e+00,4.562301874913532e+00,-8.730704192489341e+00,1.759031314600699e+01,
1220,1.426666666666323e-02,1.999999999991505e-04,-2.335712463033046e-04,-2.609734866767698e-03,1.618314257044251e+01,4.900385968793025e+00,-1.070231860483753e+01,2.419626191397900e+01,
1221,1.426666666666359e-02,2.999999999993628e-04,-2.050858367618844e-04,-2.613950309684959e-03,2.598533170218151e+01,4.933071897632952e+00,-1.219996973460618e+01,3.222661460624491e+01,
1222,1.426666666666396e-02,3.999999999996814e-04,-1.765905225637555e-04,-2.618195982625762e-03,3.609365344121471e+01,4.661459668493209e+00,-1.322513943287512e+01,4.108040965523429e+01,
1223,1.439999999999481e-02,-4.000000000003251e-04,-4.103518888588103e-04,-2.623047935555349e-03,-3.336325142516921e+01,-1.502301944981943e+00,7.473004134649985e+00,3.519237509695855e+01,
1224,1.439999999999515e-02,-3.000000000006505e-04,-3.817577732716096e-04,-2.627138915505449e-03,-2.611784790635223e+01,3.205648529659362e-01,3.317524360588804e+00,2.725827472098112e+01,
1225,1.439999999999548e-02,-2.000000000008673e-04,-3.531880236593544e-04,-2.631247936756836e-03,-1.855905914946192e+01,1.832702029184018e+00,-3.585917847763074e-01,2.040436904781346e+01,
1226,1.439999999999582e-02,-1.000000000009758e-04,-3.246368121658172e-04,-2.635376720349460e-03,-1.068864533553302e+01,3.035044804360732e+00,-3.556507221351324e+00,1.545751097421294e+01,
1227,1.439999999999615e-02,-1.084334309625276e-15,-2.960983200748939e-04,-2.639526982823113e-03,-2.508028459068486e+00,3.928437675455621e+00,-6.277194864095109e+00,1.410818194340305e+01,
1228,1.439999999999649e-02,9.999999999902425e-05,-2.675667365689291e-04,-2.643700437088884e-03,5.981867449417274e+00,4.513634417860814e+00,-8.521656576879947e+00,1.710643830527204e+01,
1229,1.439999999999682e-02,1.999999999991324e-04,-2.390362590357151e-04,-2.647898793621322e-03,1.478056288336449e+01,4.791408059196490e+00,-1.029111593838896e+01,2.287818793372089e+01,
1230,1.439999999999716e-02,2.999999999993494e-04,-2.105010946989950e-04,-2.652123760917056e-03,2.388776134181619e+01,4.762706997693542e+00,-1.158710141250188e+01,3.004681980243595e+01,
1231,1.439999999999750e-02,3.999999999996747e-04,-1.819554626528072e-04,-2.656377044527365e-03,3.330294628001585e+01,4.428753681362324e+00,-1.241134945848438e+01,3.807736046191516e+01,
1232,1.453333333332857e-02,-4.000000000003320e-04,-4.161064361538579e-04,-2.661180413406972e-03,-3.057709759528779e+01,-1.261291483365163e+00,6.658409518448969e+00,3.219866701050414e+01,
1233,1.453333333332888e-02,-3.000000000006640e-04,-3.874698859140276e-04,-2.665291419294322e-03,-2.403103451996122e+01,5.037709715649823e-01,2.709908483800651e+00,2.512630288103133e+01,
1234,1.453333333332919e-02,-2.000000000008854e-04,-3.588571159044072e-04,-2.669418519104831e-03,-1.717028984447705e+01,1.957679033311336e+00,-7.608956291511813e-01,1.918840905399629e+01,
1235,1.453333333332950e-02,-1.000000000009961e-04,-3.302623060448875e-04,-2.673563440127643e-03,-9.997511514097146e+00,3.101581683572394e+00,-3.754845298163338e+00,1.509906273428221e+01,
1236,1.453333333332981e-02,-1.106855221626873e-15,-3.016796435571032e-04,-2.677727901846451e-03,-2.514590443299979e+00,3.936269623261115e+00,-6.272347837520439e+00,1.410613289238911e+01,
1237,1.453333333333012e-02,9.999999999900391e-05,-2.731033198718429e-04,-2.681913619077485e-03,5.277621064317357e+00,4.462181427116517e+00,-8.313826812375405e+00,1.664763667511419e+01,
1238,1.453333333333042e-02,1.999999999991145e-04,-2.445275310395629e-04,-2.686122305602111e-03,1.337928162675985e+01,4.679668049149758e+00,-9.880168829360780e+00,2.159060491941871e+01,
1239,1.453333333333073e-02,2.999999999993358e-04,-2.159464815956236e-04,-2.690355676605248e-03,2.179113999481255e+01,4.589400064198266e+00,-1.097300029099938e+01,2.788416751824554e+01,
1240,1.453333333333104e-02,3.999999999996680e-04,-1.873543903869621e-04,-2.694615448003956e-03,3.051370900473820e+01,4.192725430321399e+00,-1.159463914987665e+01,3.507900803027544e+01,
1241,1.466666666666235e-02,-4.000000000003387e-04,-4.218624450934786e-04,-2.699374025914970e-03,-2.779526185328895e+01,-1.021175663157632e+00,5.842255474177190e+00,2.921265971148115e+01,
1242,1.466666666666262e-02,-3.000000000006777e-04,-3.931873383293416e-04,-2.703503921231764e-03,-2.194565148091283e+01,6.842131442278326e-01,2.101567829365307e+00,2.301688776350716e+01,
1243,1.466666666666290e-02,-2.000000000009035e-04,-3.645354190957582e-04,-2.707647977265519e-03,-1.578017701793369e+01,2.078454043604069e+00,-1.164105239970105e+00,1.800975478542184e+01,
1244,1.466666666666318e-02,-1.000000000010165e-04,-3.359008832734871e-04,-2.711807924944091e-03,-9.303016130884739e+00,3.163280692822853e+00,-3.954928925982466e+00,1.476395637134821e+01,
1245,1.466666666666346e-02,-1.129487941977508e-15,-3.072779292718413e-04,-2.715985481228668e-03,-2.517042942214919e+00,3.939484288095424e+00,-6.270206018170787e+00,1.410491679936325e+01,
1246,1.466666666666374e-02,9.999999999898361e-05,-2.786607512332206e-04,-2.720182355750739e-03,4.576685025343730e+00,4.406864088579474e+00,-8.109143417206282e+00,1.621917590365933e+01,
1247,1.466666666666402e-02,1.999999999990964e-04,-2.500435388216065e-04,-2.724400259444366e-03,1.197929468817035e+01,4.564766513504174e+00,-9.471728769122780e+00,2.034280736664020e+01,
1248,1.466666666666430e-02,2.999999999993222e-04,-2.214204843836994e-04,-2.728640911436006e-03,1.969367997382329e+01,4.413050801028215e+00,-1.035953786307823e+01,2.574446983067784e+01,
1249,1.466666666666458e-02,3.999999999996613e-04,-1.927857963728570e-04,-2.732906040948921e-03,2.772297594317488e+01,3.953014457699735e+00,-1.077595750170162e+01,3.208576178517333e+01,
1250,1.479999999999611e-02,-4.000000000003456e-04,-4.276184027078305e-04,-2.737623584211245e-03,-2.501967473624655e+01,-7.838911786453245e-01,5.026785043976578e+00,2.623828264510238e+01,
1251,1.479999999999636e-02,-3.000000000006911e-04,-3.989085988406033e-04,-2.741771229969862e-03,-1.986182556854677e+01,8.590074377386065e-01,1.494807891549170e+00,2.093539402554717e+01,
1252,1.479999999999661e-02,-2.000000000009214e-04,-3.702213807517084e-04,-2.745931126081467e-03,-1.438717353537682e+01,2.191356372487401e+00,-1.566511321030311e+00,1.687197335173372e+01,
1253,1.479999999999686e-02,-1.000000000010368e-04,-3.415509753853057e-04,-2.750105003971051e-03,-8.601879461940040e+00,3.216349148561656e+00,-4.156308940173310e+00,1.444888035505655e+01,
1254,1.479999999999712e-02,-1.152063064087730e-15,-3.128916036710588e-04,-2.754294569802363e-03,-2.511065211862433e+00,3.934966447812976e+00,-6.272123435227560e+00,1.410352628616194e+01,
1255,1.479999999999736e-02,9.999999999896322e-05,-2.842374669090985e-04,-2.758501516066519e-03,3.882839489185614e+00,4.345835059484242e+00,-7.910721464281652e+00,1.582821598411842e+01,
1256,1.479999999999762e-02,1.999999999990782e-04,-2.555827414899304e-04,-2.762727537353463e-03,1.058182964609398e+01,4.446159321517195e+00,-9.069855979333827e+00,1.914929764443914e+01,
1257,1.479999999999787e-02,2.999999999993087e-04,-2.269215890944732e-04,-2.766974349177443e-03,1.759273162443687e+01,4.233618507894093e+00,-9.750237664414424e+00,2.363756420003651e+01,
1258,1.479999999999812e-02,3.999999999996544e-04,-1.982481833430277e-04,-2.771243697353927e-03,2.492484914774678e+01,3.708873331888520e+00,-9.956908865649087e+00,2.909772785724769e+01,
1259,1.493333333332988e-02,-4.000000000003523e-04,-4.333728040285093e-04,-2.775923883251963e-03,-2.225342921494886e+01,-5.508488397970468e-01,4.214999186877417e+00,2.328232951234548e+01,
1260,1.493333333333010e-02,-3.000000000007048e-04,-4.046321302963411e-04,-2.780088135213019e-03,-1.778147990582730e+01,1.024743735311074e+00,8.931863414630458e-01,1.889087544299672e+01,
1261,1.493333333333032e-02,-2.000000000009396e-04,-3.759134268963774e-04,-2.784262760315508e-03,-1.299073635643114e+01,2.291287726971577e+00,-1.964497874471973e+00,1.577901352052530e+01,
1262,1.493333333333055e-02,-1.000000000010571e-04,-3.472109737818607e-04,-2.788449490052602e-03,-7.889686557418361e+00,3.254893558986664e+00,-4.356755422849205e+00,1.414662282062663e+01,
1263,1.493333333333077e-02,-1.174638186197952e-15,-3.185190394156602e-04,-2.792650013501820e-03,-2.488467636808777e+00,3.917566930815695e+00,-6.278826070861540e+00,1.409723044410220e+01,
1264,1.493333333333099e-02,9.999999999894296e-05,-2.898318490712415e-04,-2.796865984772996e-03,3.204941294702460e+00,4.276029859569062e+00,-7.723026750016709e+00,1.548314565712286e+01,
1265,1.493333333333122e-02,1.999999999990603e-04,-2.611435626908548e-04,-2.801099055702062e-03,9.191681939257256e+00,4.323065159798721e+00,-8.681530845015079e+00,1.803272970454052e+01,
1266,1.493333333333144e-02,2.999999999992952e-04,-2.324482787728138e-04,-2.805350914946476e-03,1.548525747999927e+01,4.051506066307059e+00,-9.151756362410421e+00,2.158122446613693e+01,
1267,1.493333333333167e-02,3.999999999996476e-04,-2.037400820421866e-04,-2.809623326501207e-03,2.210801967050082e+01,3.458902871840919e+00,-9.140410265692831e+00,2.611470766964069e+01,
1268,1.506666666666364e-02,-4.000000000003591e-04,-4.391241704434753e-04,-2.814269718405960e-03,-1.950114662862185e+01,-3.205903259006198e-01,3.409654657888224e+00,2.035673646796299e+01,
1269,1.506666666666384e-02,-3.000000000007182e-04,-4.103564132298602e-04,-2.818449413542145e-03,-1.571157010656637e+01,1.179392995892864e+00,3.018995278848666e-01,1.690175162012470e+01,
1270,1.506666666666403e-02,-2.000000000009577e-04,-3.816099777644002e-04,-2.822637641067577e-03,-1.159556692833599e+01,2.372052528146548e+00,-2.350414945091378e+00,1.473744194009073e+01,
1271,1.506666666666423e-02,-1.000000000010775e-04,-3.528792259597691e-04,-2.826836156190674e-03,-7.161542591472921e+00,3.270652480540862e+00,-4.548980559548736e+00,1.384209487560167e+01,
1272,1.506666666666442e-02,-1.197216696439962e-15,-3.241585242361969e-04,-2.831046629720953e-03,-2.434385909075379e+00,3.879299763255880e+00,-6.288082856579519e+00,1.407204927556175e+01,
1273,1.506666666666462e-02,9.999999999892259e-05,-2.954421786862618e-04,-2.835270652189534e-03,2.562243504441738e+00,4.192183625953453e+00,-7.551195413348578e+00,1.519009260939577e+01,
1274,1.506666666666482e-02,1.999999999990422e-04,-2.667243479856107e-04,-2.839509768157167e-03,7.822399633646445e+00,4.194648515873432e+00,-8.318296361033397e+00,1.702753051891052e+01,
1275,1.506666666666501e-02,2.999999999992816e-04,-2.379990190483050e-04,-2.843765589316934e-03,1.336918362029655e+01,3.867694585532556e+00,-8.576237730861745e+00,1.960830712587823e+01,
1276,1.506666666666521e-02,3.999999999996409e-04,-2.092600759090549e-04,-2.848039878911269e-03,1.925235170975182e+01,3.201344517115580e+00,-8.331969800655134e+00,2.313702044201407e+01,
1277,1.519999999999740e-02,-4.000000000003660e-04,-4.448710813406160e-04,-2.852655933719163e-03,-1.676757102703700e+01,-8.262224026982379e-02,2.610307193279859e+00,1.748262939578019e+01,
1278,1.519999999999757e-02,-3.000000000007319e-04,-4.160800033267512e-04,-2.856849842499819e-03,-1.367396940166807e+01,1.324624651090395e+00,-2.722532764301193e-01,1.500847463753560e+01,
1279,1.519999999999774e-02,-2.000000000009757e-04,-3.873095084687261e-04,-2.861050475303052e-03,-1.021803915864974e+01,2.429277205839004e+00,-2.707935171549665e+00,1.375813442283247e+01,
1280,1.519999999999791e-02,-1.000000000010978e-04,-3.585540494868414e-04,-2.865259677667739e-03,-6.415715646934048e+00,3.252734799430673e+00,-4.715031222152539e+00,1.350573995519325e+01,
1281,1.519999999999808e-02,-1.219847722724703e-15,-3.298082209861360e-04,-2.869479159817774e-03,-2.321303147284604e+00,3.809003604204599e+00,-6.289256322396700e+00,1.399284249974184e+01,
1282,1.519999999999824e-02,9.999999999890229e-05,-3.010665490439859e-04,-2.873710373484551e-03,1.993901839473244e+00,4.087581995785802e+00,-7.399992826122176e+00,1.494734330587130e+01,
1283,1.519999999999841e-02,1.999999999990240e-04,-2.723232772142048e-04,-2.877954661031555e-03,6.503046170664152e+00,4.058235797716365e+00,-7.997243254380889e+00,1.618025637740748e+01,
1284,1.519999999999858e-02,2.999999999992681e-04,-2.435722149363037e-04,-2.882213404781562e-03,1.124794298232470e+01,3.686259540119252e+00,-8.044756735115824e+00,1.777783733160166e+01,
1285,1.519999999999875e-02,3.999999999996340e-04,-2.148068319531089e-04,-2.886488334373347e-03,1.632316546579165e+01,2.933862023433942e+00,-7.540988082235160e+00,2.016778251809511e+01,
1286,1.533333333333117e-02,-4.000000000003727e-04,-4.506122026717281e-04,-2.891077497237639e-03,-1.406220023363178e+01,1.849800259552721e-01,1.807179759273279e+00,1.469849448339779e+01,
1287,1.533333333333131e-02,-3.000000000007453e-04,-4.218016702706289e-04,-2.895284231528335e-03,-1.170817872533300e+01,1.478973010231168e+00,-8.202367449022583e-01,1.328879694206908e+01,
1288,1.533333333333145e-02,-2.000000000009938e-04,-3.930106755116295e-04,-2.899495850152578e-03,-8.907935540760448e+00,2.458041445308005e+00,-3.007615576727140e+00,1.285956603767501e+01,
1289,1.533333333333159e-02,-1.000000000011181e-04,-3.642338073035844e-04,-2.903714569137392e-03,-5.651643997210694e+00,3.191034496424234e+00,-4.815320030030384e+00,1.307448625790860e+01,
1290,1.533333333333173e-02,-1.242370328792194e-15,-3.354661077758837e-04,-2.907942159456247e-03,-2.101345856141587e+00,3.697030501742997e+00,-6.259961703295241e+00,1.379745086943842e+01,
1291,1.533333333333188e-02,9.999999999888198e-05,-3.067027374222543e-04,-2.912179941599405e-03,1.571750831328293e+00,3.955133312701445e+00,-7.269825160578719e+00,1.473370094423156e+01,
1292,1.533333333333201e-02,1.999999999990060e-04,-2.779382158614887e-04,-2.916428688323913e-03,5.288058281354354e+00,3.918169982480236e+00,-7.743701614384680e+00,1.554786971652026e+01,
1293,1.533333333333215e-02,2.999999999992545e-04,-2.491661167991201e-04,-2.920689408688440e-03,9.120613402509585e+00,3.504620723825582e+00,-7.585225363327327e+00,1.617658644513388e+01,
1294,1.533333333333229e-02,3.999999999996273e-04,-2.203791311365022e-04,-2.924963593513202e-03,1.327491220185662e+01,2.663362199335291e+00,-6.779830120502999e+00,1.721828618961623e+01,
1295,1.546666666666493e-02,-4.000000000003794e-04,-4.563463103101731e-04,-2.929529536318477e-03,-1.136716702718554e+01,5.333092944209803e-01,9.751419563472901e-01,1.205922651007239e+01,
1296,1.546666666666505e-02,-3.000000000007590e-04,-4.275205439008447e-04,-2.933747365456909e-03,-9.898295276624495e+00,1.662457967686407e+00,-1.340178411100613e+00,1.186740613066586e+01,
1297,1.546666666666516e-02,-2.000000000010119e-04,-3.987126275651108e-04,-2.937968245601873e-03,-7.722956676086302e+00,2.481566612700993e+00,-3.201538586966653e+00,1.204706158557961e+01,
1298,1.546666666666527e-02,-1.000000000011384e-04,-3.699169998960975e-04,-2.942195009267823e-03,-4.924182012668801e+00,3.049412523200512e+00,-4.792794161072725e+00,1.246842866218900e+01,
1299,1.546666666666538e-02,-1.264999661011040e-15,-3.411299688096492e-04,-2.946430093427152e-03,-1.667112775927275e+00,3.552123807787449e+00,-6.155925133163638e+00,1.337243760491142e+01,
1300,1.546666666666550e-02,9.999999999886166e-05,-3.123480199646662e-04,-2.950673968952282e-03,1.434171774502706e+00,3.844470741739551e+00,-7.177748235973154e+00,1.455643569241887e+01,
1301,1.546666666666561e-02,1.999999999989879e-04,-2.835665694657872e-04,-2.954926807603683e-03,4.203453764218194e+00,3.762562380517590e+00,-7.579229969615059e+00,1.516487035689609e+01,
1302,1.546666666666572e-02,2.999999999992410e-04,-2.547787426630966e-04,-2.959188350152687e-03,6.975985208069799e+00,3.345565464678825e+00,-7.219373849794548e+00,1.488816250064434e+01,
1303,1.546666666666583e-02,3.999999999996205e-04,-2.259758283222973e-04,-2.963460124819721e-03,1.003260639733261e+01,2.390460573667230e+00,-6.040876958202276e+00,1.429584451813613e+01,
1304,1.559999999999870e-02,-4.000000000003863e-04,-4.620719122283174e-04,-2.968006946075509e-03,-8.660483554933446e+00,9.227364535164303e-01,7.867831525134600e-02,9.584511820615447e+00,
1305,1.559999999999879e-02,-3.000000000007724e-04,-4.332363237262921e-04,-2.972234031875555e-03,-8.075656675623909e+00,2.058357330652723e+00,-1.866229278288693e+00,1.079951326477165e+01,
1306,1.559999999999887e-02,-2.000000000010299e-04,-4.044150830753799e-04,-2.976461875197754e-03,-6.952333360344549e+00,2.384675912619368e+00,-3.291859048924727e+00,1.142475759722563e+01,
1307,1.559999999999896e-02,-1.000000000011588e-04,-3.756028741056917e-04,-2.980695487230788e-03,-4.248852009451399e+00,2.821218195828066e+00,-4.552062331643482e+00,1.152696744995189e+01,
1308,1.559999999999904e-02,-1.287576477187156e-15,-3.467971352227853e-04,-2.984937136255505e-03,-8.469673092495075e-01,3.485580376202578e+00,-6.006634203512335e+00,1.277065336096526e+01,
1309,1.559999999999912e-02,9.999999999884136e-05,-3.179991445578095e-04,-2.989187876632458e-03,1.735826851425506e+00,3.841889828353032e+00,-7.152861139787309e+00,1.445991670802784e+01,
1310,1.559999999999921e-02,1.999999999989698e-04,-2.892055187058532e-04,-2.993443519282024e-03,3.248612446179297e+00,3.790274072223132e+00,-7.556521316232205e+00,1.512274627598490e+01,
1311,1.559999999999929e-02,2.999999999992274e-04,-2.604080456508154e-04,-2.997704253455720e-03,4.463204424504526e+00,3.059497671067169e+00,-6.849083292985841e+00,1.376990052493760e+01,
1312,1.559999999999937e-02,3.999999999996138e-04,-2.315958478229944e-04,-3.001970671621379e-03,6.670422247111748e+00,2.258509431488763e+00,-5.227308603979086e+00,1.134742242351070e+01,
1313,1.573333333333247e-02,-4.000000000003931e-04,-4.677863050607498e-04,-3.006502648296545e-03,-5.968498368178416e+00,9.374611591579356e-01,-8.026197430938944e-01,7.090068462379200e+00,
1314,1.573333333333253e-02,-3.000000000007861e-04,-4.389471314367809e-04,-3.010738644650512e-03,-5.961101007569617e+00,2.373030808173286e+00,-2.543556263824298e+00,9.764039481236104e+00,
1315,1.573333333333258e-02,-2.000000000010480e-04,-4.101197339974974e-04,-3.014972792822071e-03,-5.447605398361521e+00,3.094503470566766e+00,-3.511982068591940e+00,1.105910015006052e+01,
1316,1.573333333333264e-02,-1.000000000011791e-04,-3.812910084020903e-04,-3.019210165029131e-03,-5.224436849131230e+00,1.532771734383822e+00,-4.259317025055465e+00,1.087322371336297e+01,
1317,1.573333333333269e-02,-1.310179551384637e-15,-3.524653023031947e-04,-3.023461778857469e-03,1.394629078728125e+00,4.141982572787017e+00,-5.858456296550460e+00,1.203469949503038e+01,
1318,1.573333333333275e-02,9.999999999882098e-05,-3.236523589408993e-04,-3.027717115334189e-03,2.875100226094014e+00,5.021077128262572e+00,-7.696191431044463e+00,1.554125693236457e+01,
1319,1.573333333333280e-02,1.999999999989518e-04,-2.948534609952512e-04,-3.031974987100938e-03,3.910947185143627e-01,3.033983210477598e+00,-7.393863900387435e+00,1.502204224101243e+01,
1320,1.573333333333286e-02,2.999999999992139e-04,-2.660541344415789e-04,-3.036227228985234e-03,1.752946584852902e+00,3.330160130864839e+00,-6.029302990679819e+00,1.216131492822244e+01,
1321,1.573333333333292e-02,3.999999999996070e-04,-2.372374010143528e-04,-3.040483857139231e-03,3.655830768048511e+00,2.498897662165247e+00,-4.021958037876527e+00,8.126689365617901e+00,
1322,1.586666666666623e-02,-4.000000000003998e-04,-4.734843009449512e-04,-3.045003856703807e-03,-3.843489525029912e+00,-5.335685993083960e-01,-1.213549127040570e+00,4.104434488390926e+00,
1323,1.586666666666626e-02,-3.000000000007995e-04,-4.446456070190377e-04,-3.049252137139032e-03,-4.067032390698858e+00,3.015527076671115e-01,-2.991679982872304e+00,7.408450056613765e+00,
1324,1.586666666666629e-02,-2.000000000010661e-04,-4.158198031020412e-04,-3.053500086467439e-03,-3.020344331511018e+00,2.185872045846388e+00,-4.529438391564979e+00,1.044834616290040e+01,
1325,1.586666666666632e-02,-1.000000000011995e-04,-3.869928265686108e-04,-3.057747727404924e-03,8.647387439096375e-01,5.986584865111858e+00,-5.110186682905207e+00,1.143194381659747e+01,
1326,1.586666666666635e-02,-1.332757638110174e-15,-3.581263863444877e-04,-3.062002210335250e-03,4.167570225589190e+00,8.146311990996422e+00,-9.038496928738056e+00,1.850967565785595e+01,
1327,1.586666666666637e-02,9.999999999880063e-05,-3.293076520316553e-04,-3.066276690841605e-03,-8.178167738081687e+00,-9.583494112964381e-01,-7.543487967701457e+00,1.672550805049613e+01,
1328,1.586666666666641e-02,1.999999999989337e-04,-3.005214825361401e-04,-3.070506428617148e-03,-1.614396636000304e+00,6.176554341600704e+00,-5.617263024233954e+00,1.367163094400540e+01,
1329,1.586666666666643e-02,2.999999999992003e-04,-2.717182109816550e-04,-3.074739024348211e-03,9.101731355274917e-01,5.309139913543621e+00,-3.662568372989405e+00,8.544503324440726e+00,
1330,1.586666666666646e-02,3.999999999996002e-04,-2.428963553713260e-04,-3.078981865667594e-03,2.245524757823528e+00,3.345058844456329e+00,-2.102520407779726e+00,4.346417314086204e+00,
