"PointID","x","y","Displacement_1","Displacement_2","Sxx","Syy","Sxy","Von_Mises_Stress"
0,5.000000000000000e-04,0.000000000000000e+00,0.000000000000000e+00,0.000000000000000e+00,-2.207142607376028e-11,-4.407909968604453e-12,5.370219528890491e-12,2.067261068058426e-11,
1,-5.000000000000000e-04,0.000000000000000e+00,0.000000000000000e+00,0.000000000000000e+00,-7.044801322602532e-11,-5.211852919096811e-11,5.876596882715526e-12,2.177401085420839e-11,
2,-5.000000000000000e-04,1.600000000000000e-02,8.388109708532140e-19,1.790889081828944e-18,3.556177201257365e-10,7.641303598747253e-10,-9.748884068011311e-12,4.089776764041935e-10,
3,5.000000000000000e-04,1.600000000000000e-02,-4.957068195441083e-19,-2.537962208342380e-19,1.032215962191173e-10,1.658521692501868e-10,-3.903923332084787e-11,1.000941338506834e-10,
4,4.000000000004066e-04,0.000000000000000e+00,0.000000000000000e+00,0.000000000000000e+00,-1.887648825229052e-11,-1.396511780741778e-11,1.697577630477194e-12,5.970648113291865e-12,
5,3.000000000008132e-04,0.000000000000000e+00,0.000000000000000e+00,0.000000000000000e+00,-1.899545196495859e-11,-1.662102046933877e-11,-6.287917696925997e-13,2.686901800573291e-12,
6,2.000000000010842e-04,0.000000000000000e+00,0.000000000000000e+00,0.000000000000000e+00,6.568321211941652e-12,1.399485873558479e-11,2.043439795090262e-12,8.476794463399098e-12,
7,1.000000000012198e-04,0.000000000000000e+00,0.000000000000000e+00,0.000000000000000e+00,1.901722383544107e-11,1.645054395802115e-11,4.873269671528338e-13,2.745504668509941e-12,
8,1.355361135824129e-15,0.000000000000000e+00,0.000000000000000e+00,0.000000000000000e+00,-5.880581411557774e-12,-5.991576066541336e-12,-9.418533885933135e-15,1.125817416687424e-13,
9,-9.999999999878032e-05,0.000000000000000e+00,0.000000000000000e+00,0.000000000000000e+00,3.032430367836658e-13,-2.374431495619824e-12,5.510059993718865e-13,2.895577895145888e-12,
10,-1.999999999989157e-04,0.000000000000000e+00,0.000000000000000e+00,0.000000000000000e+00,-1.327737800703389e-11,-7.840775215410369e-12,9.956965853989919e-13,5.789844270322783e-12,
11,-2.999999999991868e-04,0.000000000000000e+00,0.000000000000000e+00,0.000000000000000e+00,-1.247067449398195e-11,-1.095445931006361e-11,-7.435232041755927e-15,1.516288104103782e-12,
12,-3.999999999995934e-04,0.000000000000000e+00,0.000000000000000e+00,0.000000000000000e+00,3.373383390471873e-12,3.646885499088525e-12,-1.255591274964074e-12,2.526032700200335e-12,
13,-5.000000000000000e-04,1.333333333330364e-04,-2.872415960368598e-20,8.134385900576064e-23,7.392525990334140e-13,-2.959145698704645e-12,-4.419863555131226e-13,3.802572513779436e-12,
14,-5.000000000000000e-04,2.666666666660728e-04,-1.543573393897277e-20,1.369220462490084e-20,9.216254816178121e-12,2.125888880559482e-11,-9.068122327942421e-14,1.204399957406493e-11,
15,-5.000000000000000e-04,3.999999999991092e-04,-1.171836019276236e-20,-2.279772047997668e-20,-6.640282815053859e-11,-6.035177022766323e-11,-2.466571157677623e-12,7.807124636480611e-12,
16,-5.000000000000000e-04,5.333333333321455e-04,8.966051493607308e-21,3.643755767792408e-20,1.407355831505962e-13,-5.658592101590629e-12,-3.181135008671746e-13,5.834122589793764e-12,
17,-5.000000000000000e-04,6.666666666651819e-04,-3.650454762107507e-20,-1.658747729628060e-20,-1.922483818001157e-13,2.412141481471325e-12,5.252323467507896e-13,2.808259715945874e-12,
18,-5.000000000000000e-04,7.999999999982184e-04,6.287820300307081e-20,9.935421574885207e-20,-3.676996272509800e-11,-3.405457820684297e-11,-5.891467346799027e-12,1.209176840150256e-11,
19,-5.000000000000000e-04,9.333333333312547e-04,7.286643646522549e-20,8.122394878101070e-21,9.705912479648496e-12,1.614146716612409e-11,1.664279233982126e-11,3.390201338546532e-11,
20,-5.000000000000000e-04,1.066666666664291e-03,-6.044954880914377e-20,2.255183642255705e-21,1.488068067288226e-11,-2.235831215040267e-12,-2.662804068319991e-12,1.792587741881661e-11,
21,-5.000000000000000e-04,1.199999999997328e-03,1.118803192368656e-19,5.065438593258079e-23,-4.864212020319719e-11,-5.018010725759803e-11,5.310737672556456e-12,1.073224779281330e-11,
22,-5.000000000000000e-04,1.333333333330364e-03,9.467637170621591e-20,4.553839409959630e-20,3.153357737295904e-11,8.234407787717778e-11,-1.536742145879581e-11,5.938297340701494e-11,
23,-5.000000000000000e-04,1.466666666663400e-03,2.829390486738200e-20,-1.374555381783398e-19,1.756262581042777e-11,1.716432623402955e-11,3.471762925918755e-11,6.943640088646689e-11,
24,-5.000000000000000e-04,1.599999999996437e-03,-7.100288469433421e-20,-1.998138151977579e-19,-4.221495341917668e-12,-2.236456475028823e-11,1.319612428021738e-11,3.202689107036026e-11,
25,-5.000000000000000e-04,1.733333333329473e-03,-5.263387406658008e-20,1.330927314905686e-19,-1.273074363505488e-10,-1.621389771422768e-10,-9.164742017528613e-12,3.935995704922995e-11,
26,-5.000000000000000e-04,1.866666666662509e-03,4.687516518392809e-22,-7.263065486754284e-20,-4.360595229054278e-11,-6.617500508545783e-11,2.562695348577657e-12,2.314371996586005e-11,
27,-5.000000000000000e-04,1.999999999995546e-03,2.656279304953005e-20,-1.785514013405682e-19,6.224241889362724e-13,-4.169982543268406e-12,-1.382146534671044e-11,2.805528077934975e-11,
28,-5.000000000000000e-04,2.133333333328582e-03,2.236503933778163e-20,-7.862755135146920e-20,-4.313593119498408e-11,-4.621190530378583e-11,3.153542659923034e-11,6.314581648771196e-11,
29,-5.000000000000000e-04,2.266666666661619e-03,1.887622518389566e-20,-1.881905133033209e-19,-5.729543268677313e-11,-1.226695680142926e-10,-1.382146534671046e-11,7.097823037482760e-11,
30,-5.000000000000000e-04,2.399999999994655e-03,2.287962916677647e-20,1.956731258680670e-19,9.838679005113833e-12,-2.069053156265948e-12,1.590353974078775e-11,3.396298559276583e-11,
31,-5.000000000000000e-04,2.533333333327691e-03,-6.590002560123335e-20,-1.328531684948454e-19,-1.946703621048843e-11,-4.369887352758578e-11,-3.352749663382088e-11,7.129904671091860e-11,
32,-5.000000000000000e-04,2.666666666660728e-03,-1.030807100105670e-19,2.463207244852457e-19,-1.455535313562183e-10,-1.941797134440464e-10,-5.540696040208153e-12,4.987286672007666e-11,
33,-5.000000000000000e-04,2.799999999993764e-03,2.566449574265838e-20,2.926594338186032e-19,1.054181542983326e-10,1.346803257729710e-10,-6.557726964456065e-11,1.343792686970457e-10,
34,-5.000000000000000e-04,2.933333333326801e-03,3.719085201750379e-20,2.296758853840341e-19,2.067417460251010e-11,3.284160605970834e-11,-9.676171551481399e-12,2.285956193456928e-11,
35,-5.000000000000000e-04,3.066666666659837e-03,1.007433554020722e-19,-9.678363607390751e-20,-5.493480400395085e-11,-6.356634461704404e-11,3.241064867758625e-11,6.539345597353889e-11,
36,-5.000000000000000e-04,3.199999999992873e-03,-2.335442875150032e-20,-3.202124545203850e-19,-1.671098294434839e-10,-2.858749479654404e-10,1.649117082142960e-11,1.232598403283918e-10,
37,-5.000000000000000e-04,3.333333333325910e-03,-8.234306539446681e-20,1.792967720114089e-19,-1.122582611610913e-11,-6.488234236147801e-11,-2.382400553304383e-12,5.386766251820357e-11,
38,-5.000000000000000e-04,3.466666666658946e-03,4.931375165394384e-20,3.441476392433900e-19,-2.458872845510195e-11,-3.592185077365236e-11,-2.476795559908956e-11,5.081580619965713e-11,
39,-5.000000000000000e-04,3.599999999991982e-03,-9.868705822608684e-20,-8.165345815783839e-20,-6.064860735671115e-13,-5.819932804201009e-11,-2.848919341859561e-11,8.101525789979720e-11,
40,-5.000000000000000e-04,3.733333333325019e-03,1.324908668015137e-20,4.209973915834073e-19,1.898196178215473e-10,3.076213591319314e-10,1.656552314184681e-11,1.223720412660134e-10,
41,-5.000000000000000e-04,3.866666666658056e-03,-2.048565739735370e-19,-6.751523267579070e-20,1.368088607855702e-10,9.189274450570767e-11,2.054140807704399e-11,6.087080814985720e-11,
42,-5.000000000000000e-04,3.999999999991091e-03,-1.238462137633927e-20,-1.125191648125279e-19,3.015012871450682e-11,2.118346883389184e-11,7.781293359076341e-12,1.796093245838457e-11,
43,-5.000000000000000e-04,4.133333333324164e-03,-4.610658683157498e-21,-3.496770078390721e-19,-1.017930406697280e-10,-1.635261242532727e-10,-6.483082956282854e-12,6.308006870006643e-11,
44,-5.000000000000000e-04,4.266666666657233e-03,-2.634777034806424e-19,-2.556996885854802e-19,-2.159616992938219e-10,-2.804675139493845e-10,-3.924450294046033e-11,1.015949022764085e-10,
45,-5.000000000000000e-04,4.399999999990304e-03,-1.033807887873014e-19,-1.558861045077362e-19,-1.929943469225079e-10,-3.255142614521420e-10,2.332317585803195e-11,1.404898924313072e-10,
46,-5.000000000000000e-04,4.533333333323375e-03,-1.333278247554269e-19,3.659353114197518e-19,4.115396552064877e-11,8.989994901068724e-12,-3.410530943050685e-11,7.541358983246776e-11,
47,-5.000000000000000e-04,4.666666666656447e-03,-1.511524253402138e-19,-8.530301921909270e-20,7.310334373534654e-11,8.176832372914933e-11,-3.309625317539908e-11,6.675724511462000e-11,
48,-5.000000000000000e-04,4.799999999989517e-03,-1.626406311423013e-19,-9.429872112747507e-20,1.355863564307793e-10,2.077369994674093e-10,-7.166603755328741e-11,1.604674392048306e-10,
49,-5.000000000000000e-04,4.933333333322587e-03,6.119081416637217e-20,-2.401145662398478e-19,9.712970201044401e-11,1.818758170088371e-10,5.168251962871817e-11,1.336646376122429e-10,
50,-5.000000000000000e-04,5.066666666655659e-03,-2.208820442393709e-19,-4.752914642256455e-20,8.014382134541803e-11,7.108210492518841e-11,-1.220514144304977e-11,2.603798408210712e-11,
51,-5.000000000000000e-04,5.199999999988730e-03,-9.565052044711119e-20,-1.182901691979560e-21,-1.312995454774136e-10,-1.564947600060823e-10,1.378083848330223e-11,3.734226656694926e-11,
52,-5.000000000000000e-04,5.333333333321801e-03,1.683605281499963e-19,5.973486218760359e-19,1.694986359044999e-10,3.549878990317175e-10,3.981718690310630e-12,1.856601278422301e-10,
53,-5.000000000000000e-04,5.466666666654871e-03,1.198551419672237e-19,-3.127511998330032e-19,-1.906263213346006e-10,-2.316278837618715e-10,-4.891960684065602e-11,1.060831742325560e-10,
54,-5.000000000000000e-04,5.599999999987943e-03,1.941165521518450e-20,8.108677287845486e-19,-2.243298421585554e-10,-3.961131146215762e-10,3.837540069351742e-11,1.881493508138056e-10,
55,-5.000000000000000e-04,5.733333333321013e-03,-1.374546915474133e-19,-2.429017950706786e-20,1.452327870540940e-10,1.822327081468438e-10,-2.356586938719610e-11,5.991990454571210e-11,
56,-5.000000000000000e-04,5.866666666654085e-03,1.678875030053668e-19,-1.534410323126426e-19,4.534202148185693e-11,9.086248853271613e-11,-2.930571521560325e-11,7.421194444104343e-11,
57,-5.000000000000000e-04,5.999999999987155e-03,-1.283190902979168e-19,-2.675205184541542e-19,-1.312044889378010e-10,-1.636578997813668e-10,2.981500944698521e-11,6.788934399945651e-11,
58,-5.000000000000000e-04,6.133333333320226e-03,-3.592901256400428e-19,3.255443664998881e-19,-9.986102464406971e-11,-1.961702203286656e-10,4.128808577370037e-11,1.268632542576437e-10,
59,-5.000000000000000e-04,6.266666666653297e-03,1.550742830340789e-19,1.494448612553657e-19,4.198671150932639e-11,-2.188016868931765e-12,-5.271178460433599e-12,4.541528285434148e-11,
60,-5.000000000000000e-04,6.399999999986368e-03,4.853987452314995e-20,-2.065913983224014e-19,-1.495864767688804e-10,-2.439073008714286e-10,3.627048677767234e-11,1.189899605165960e-10,
61,-5.000000000000000e-04,6.533333333319439e-03,7.628334427945668e-20,3.333869518537694e-20,9.613502072073693e-11,2.297850905207175e-10,-7.035879044152394e-11,1.940715814515789e-10,
62,-5.000000000000000e-04,6.666666666652510e-03,1.250782228012104e-20,-9.080951197763843e-19,1.295883744565226e-10,1.952694512733671e-10,3.560957102789789e-11,9.688224835842655e-11,
63,-5.000000000000000e-04,6.799999999985581e-03,-3.911029506913973e-20,1.988356670225350e-19,1.876076937795617e-10,1.994363075166960e-10,6.413327147848872e-11,1.288107997998478e-10,
64,-5.000000000000000e-04,6.933333333318652e-03,-1.222374925550189e-20,5.064178872040803e-19,3.890006088766898e-11,4.348001051756270e-11,-4.697613272715818e-11,9.406383004434113e-11,
65,-5.000000000000000e-04,7.066666666651722e-03,-1.206837215062233e-19,-3.443385260849601e-19,-3.223469292562719e-10,-5.482423640948236e-10,-4.740659461059467e-11,2.449863023338070e-10,
66,-5.000000000000000e-04,7.199999999984794e-03,2.286780632921580e-19,5.060034889999945e-19,-8.618691021060828e-11,-1.148563984244769e-10,-5.034659924007346e-11,1.046950799923636e-10,
67,-5.000000000000000e-04,7.333333333317865e-03,3.303117078249673e-19,-8.716307581497005e-19,-1.941775781414775e-10,-2.243967209199750e-10,3.348580211912685e-11,7.347375289525153e-11,
68,-5.000000000000000e-04,7.466666666650935e-03,6.310268634927821e-20,2.063648532122685e-19,-5.756145001348006e-10,-7.669163216069600e-10,-2.332317585803159e-11,1.969067521112080e-10,
69,-5.000000000000000e-04,7.599999999984006e-03,-8.409490368467782e-20,-6.893778172559091e-21,-2.749002799348634e-10,-3.743188891089694e-10,8.261729390949501e-11,1.928380897588056e-10,
70,-5.000000000000000e-04,7.733333333317077e-03,1.992512591648144e-20,7.138541543814883e-19,-1.326309091846187e-10,-1.630226637770046e-10,-5.396374381099506e-11,1.121249362612913e-10,
71,-5.000000000000000e-04,7.866666666650150e-03,-1.301969370980640e-19,-6.296125530331081e-21,2.671057559155896e-10,3.599385426124145e-10,6.709640170603587e-11,1.631736338183626e-10,
72,-5.000000000000000e-04,7.999999999983218e-03,-3.661425208789936e-19,-3.194218090795312e-19,-2.305657515581455e-10,-4.401222092462585e-10,-5.913082902284409e-11,2.406236246142618e-10,
73,-5.000000000000000e-04,8.133333333316652e-03,-4.899473846117436e-20,6.584929445364880e-19,-3.604886731295935e-10,-5.472439843525686e-10,9.927631044098533e-11,2.725815282242908e-10,
74,-5.000000000000000e-04,8.266666666650083e-03,-1.253186664455115e-19,-1.555915610541214e-19,-4.212046903216254e-11,-1.170316034779841e-10,5.934378162384089e-11,1.403510446474568e-10,
75,-5.000000000000000e-04,8.399999999983516e-03,-5.165576504814321e-20,-3.716032907089926e-19,-3.105188876717357e-10,-4.896713511046366e-10,-3.807109000544815e-11,1.946618522743700e-10,
76,-5.000000000000000e-04,8.533333333316948e-03,-3.984441767123323e-20,-1.804664032893753e-19,-5.313330477067004e-10,-8.731874306144825e-10,1.183231218967647e-11,3.426724873115382e-10,
77,-5.000000000000000e-04,8.666666666650381e-03,1.745941751289117e-19,7.522943651367003e-19,-4.817158827816992e-10,-6.951332462211828e-10,-5.435805885855099e-11,2.395123488861052e-10,
78,-5.000000000000000e-04,8.799999999983810e-03,-1.143792308632869e-19,-9.376216351358707e-20,2.358308868410742e-10,2.509304305239797e-10,-2.575096937857252e-11,5.366978586855629e-11,
79,-5.000000000000000e-04,8.933333333317245e-03,2.083202381801415e-19,1.226231321340771e-19,-4.092104839096355e-10,-5.724318019761520e-10,-5.717277052156299e-11,1.992889897305322e-10,
80,-5.000000000000000e-04,9.066666666650678e-03,1.435804047923168e-19,-2.351384703165292e-19,2.203383051842861e-10,2.514358729949955e-10,-6.193408259801451e-11,1.277121022956415e-10,
81,-5.000000000000000e-04,9.199999999984110e-03,3.953372197938237e-19,-1.125417629508691e-19,1.246600748989109e-10,2.267091164119135e-10,4.732291950490642e-11,1.391827637158924e-10,
82,-5.000000000000000e-04,9.333333333317543e-03,-1.656435382311506e-19,-8.448167863886360e-19,-1.672925456176264e-10,-2.963562598800002e-10,9.689974364279907e-12,1.305106308004113e-10,
83,-5.000000000000000e-04,9.466666666650974e-03,-1.873569250477053e-19,-4.910094328698675e-19,-3.270607897168272e-10,-5.750637974650184e-10,-5.979096319763223e-11,2.753276756385959e-10,
84,-5.000000000000000e-04,9.599999999984407e-03,-1.353788712134878e-19,1.008630537089310e-18,-1.119503286743960e-10,-1.643779346572615e-10,-2.057591510903984e-11,6.664928356248292e-11,
85,-5.000000000000000e-04,9.733333333317837e-03,-1.107608903519385e-19,8.535726374791124e-19,-1.066746701864331e-10,-3.147164758405985e-10,-2.235076193749118e-11,2.127900823266702e-10,
86,-5.000000000000000e-04,9.866666666651270e-03,8.252466676368269e-19,6.244382199578522e-20,7.893454765082472e-11,2.932632033506287e-10,-4.055003359442389e-12,2.144820385558322e-10,
87,-5.000000000000000e-04,9.999999999984703e-03,1.422492557094337e-19,-4.378429021991322e-19,-3.005877062744343e-11,-9.657045813039743e-11,2.811850900027084e-13,6.651406493900343e-11,
88,-5.000000000000000e-04,1.013333333331814e-02,-2.961488163142252e-19,-9.832046170717125e-19,2.568700749471041e-11,-1.138452068667998e-10,-6.607062576057390e-11,1.921732270588223e-10,
89,-5.000000000000000e-04,1.026666666665157e-02,2.832379193359031e-19,2.087403245895505e-18,-5.481797559385584e-11,-2.044635153743174e-11,-7.091084683888523e-11,1.459273837835364e-10,
90,-5.000000000000000e-04,1.039999999998500e-02,1.852795925100869e-19,3.217963729839983e-19,-1.353208233798465e-10,-1.944813933308571e-10,9.652136671060731e-11,2.019046060981833e-10,
91,-5.000000000000000e-04,1.053333333331843e-02,-2.997947516503643e-19,-1.263943854850768e-18,-1.319293665714348e-10,-1.865768656539711e-10,6.491833588953220e-12,5.616871699943347e-11,
92,-5.000000000000000e-04,1.066666666665187e-02,1.547001748562524e-19,2.012613167602956e-19,8.638129389497593e-11,7.968020615756708e-11,4.243574230938736e-11,8.513561815279996e-11,
93,-5.000000000000000e-04,1.079999999998530e-02,1.534089551457857e-19,-1.416714801785083e-18,-1.467904106764050e-10,-2.244966202173265e-10,1.268602547767580e-10,2.653532588255012e-10,
94,-5.000000000000000e-04,1.093333333331873e-02,-2.830217788169922e-20,-6.290824596908038e-20,4.805501528280618e-10,6.442510241977908e-10,-3.953365708814583e-11,1.817955320085204e-10,
95,-5.000000000000000e-04,1.106666666665216e-02,3.686223389028573e-19,1.477233783341918e-18,-4.815358740627371e-10,-5.360309700518987e-10,1.502163745168141e-10,3.053351473033703e-10,
96,-5.000000000000000e-04,1.119999999998559e-02,7.278112950104173e-19,-2.393556058832176e-19,-7.501672240620752e-10,-1.006231852030447e-09,3.644679704410507e-11,2.662378067737137e-10,
97,-5.000000000000000e-04,1.133333333331903e-02,6.300754038239188e-20,-1.173512229068047e-18,-6.709300055270478e-10,-9.447399754799864e-10,9.350964056196845e-11,3.315842444353214e-10,
98,-5.000000000000000e-04,1.146666666665246e-02,2.907866002715788e-19,1.154852060122040e-19,4.610146747061847e-10,7.271039774615789e-10,4.441635425613755e-12,2.662375434492065e-10,
99,-5.000000000000000e-04,1.159999999998589e-02,-8.542542018810020e-20,-6.369922648338469e-19,-8.627136689128192e-10,-1.127459368298184e-09,-6.662005135667807e-11,2.963835527051250e-10,
100,-5.000000000000000e-04,1.173333333331932e-02,-4.253818617614689e-19,1.653877215967165e-19,1.466051403549188e-10,-1.140979281023059e-10,1.956725936075125e-10,4.702309490658557e-10,
101,-5.000000000000000e-04,1.186666666665276e-02,-2.530012202345156e-19,-1.985048061141603e-18,1.604194182189389e-10,2.012367013220982e-10,2.634336656304109e-11,6.664789904732524e-11,
102,-5.000000000000000e-04,1.199999999998619e-02,-2.851363270545488e-19,8.909043102559098e-19,4.240308450364461e-11,5.628111482912665e-11,-2.075059734484738e-10,4.152439232462167e-10,
103,-5.000000000000000e-04,1.213333333331998e-02,9.489630125076714e-20,1.022741019854646e-18,2.701933975346203e-10,4.215621946909491e-10,-6.689988271909395e-11,2.020269536073539e-10,
104,-5.000000000000000e-04,1.226666666665377e-02,-5.154196687815996e-19,-1.402365343622232e-18,-1.250912417034270e-10,-2.968150323101155e-10,1.809509313581065e-10,4.005771068069098e-10,
105,-5.000000000000000e-04,1.239999999998757e-02,-5.445552268732849e-19,1.462537557007594e-19,-5.965722812061784e-10,-8.924208100047706e-10,8.510222456141371e-11,3.413149667001093e-10,
106,-5.000000000000000e-04,1.253333333332136e-02,-2.050827782396500e-19,2.004006293161420e-19,8.632082104126509e-11,4.694796045234645e-12,-1.124463922455780e-10,2.392479309687716e-10,
107,-5.000000000000000e-04,1.266666666665516e-02,-1.396151997328168e-19,5.160663741292923e-19,3.571115912865644e-10,4.795076571922359e-10,9.422868444048783e-11,2.247153239873187e-10,
108,-5.000000000000000e-04,1.279999999998895e-02,4.284253834294654e-19,-6.188286519304590e-19,-4.949192659804388e-13,1.219728681588563e-10,5.394303959179803e-11,1.632107993925162e-10,
109,-5.000000000000000e-04,1.293333333332274e-02,1.342008743610541e-19,-1.044373537482371e-19,-7.104606129691709e-10,-9.195513201668647e-10,-2.799661887756959e-11,2.164582327164651e-10,
110,-5.000000000000000e-04,1.306666666665654e-02,-2.155924234396925e-19,-1.403105256160991e-18,2.573819233258268e-10,4.446875183738029e-10,-3.036045051424632e-11,1.969020410203724e-10,
111,-5.000000000000000e-04,1.319999999999033e-02,5.915289980546869e-20,8.209124623950969e-20,-3.509851133919883e-10,-5.074931040582666e-10,-1.066159699050844e-10,2.645044636629094e-10,
112,-5.000000000000000e-04,1.333333333332413e-02,3.324182964451494e-19,4.884703562978999e-19,-7.453575104510519e-11,-1.779130299653684e-10,2.251275089626351e-10,4.619701754051265e-10,
113,-5.000000000000000e-04,1.346666666665792e-02,5.540372931781129e-19,5.252981413778818e-19,-1.233652768723692e-10,-1.205091567709658e-10,1.120059026558003e-10,2.240300121434538e-10,
114,-5.000000000000000e-04,1.359999999999171e-02,2.520647612096332e-19,-1.842112703122148e-18,-1.300726172096534e-10,-1.158886363922104e-10,1.085100665225045e-10,2.174831567241542e-10,
115,-5.000000000000000e-04,1.373333333332551e-02,-2.654417035352425e-19,2.614226626082019e-20,-5.525122459354410e-10,-9.277393010047931e-10,-1.984726236894670e-11,3.773208159513409e-10,
116,-5.000000000000000e-04,1.386666666665930e-02,-6.479804479991216e-20,4.695759911888059e-19,4.789489854647635e-11,-2.815222492480612e-11,-4.472863400189090e-11,1.174128092967583e-10,
117,-5.000000000000000e-04,1.399999999999309e-02,3.548644958669817e-19,-9.721886020541283e-19,3.559013265946040e-10,5.998989945557264e-10,1.473881461173018e-10,3.826590184930267e-10,
118,-5.000000000000000e-04,1.413333333332689e-02,2.476063086486489e-19,5.167182929189586e-20,-5.161007374983207e-10,-6.601693577487575e-10,-1.195091372248180e-10,2.790797428366059e-10,
119,-5.000000000000000e-04,1.426666666666068e-02,4.642540739193140e-19,-1.039423722013004e-18,-2.069812366004059e-10,-2.027533353507734e-10,3.532625063532577e-11,7.077888869413018e-11,
120,-5.000000000000000e-04,1.439999999999447e-02,-2.686392390367304e-19,-9.905880766840900e-20,-6.578425572194983e-12,-2.620213548120257e-11,1.604132217336052e-10,3.214260363107072e-10,
121,-5.000000000000000e-04,1.453333333332827e-02,7.130698614027334e-20,1.169877444576135e-18,-1.802752217981591e-10,-3.087643262177028e-10,-9.861219173735518e-11,2.353867188086788e-10,
122,-5.000000000000000e-04,1.466666666666206e-02,2.924816850505127e-19,3.419453167037948e-19,-4.900239716374885e-10,-6.446471884716177e-10,2.399983713515628e-10,5.042868352334262e-10,
123,-5.000000000000000e-04,1.479999999999586e-02,4.644365935371229e-20,1.085825171899444e-18,-6.969324135640219e-11,-1.905066321615149e-10,-2.306623712477302e-10,4.768819491617728e-10,
124,-5.000000000000000e-04,1.493333333332965e-02,1.637656667453346e-19,-2.116883311334031e-19,-8.958789922668234e-11,4.509456184885837e-11,8.483981781042406e-11,2.166345864948354e-10,
125,-5.000000000000000e-04,1.506666666666344e-02,2.118231749634368e-20,1.832633223831980e-19,-2.007342318431862e-10,-4.178552551829209e-10,-6.639350536526966e-11,2.545072277850788e-10,
126,-5.000000000000000e-04,1.519999999999724e-02,8.132736479163373e-19,-1.912032772359206e-18,1.619696449361567e-10,4.717158406281440e-10,1.324317593964166e-10,4.075480208919930e-10,
127,-5.000000000000000e-04,1.533333333333103e-02,-8.918799001601811e-19,8.960942833089140e-19,4.485827011954100e-10,3.770985982412759e-10,-5.229405788241384e-11,1.266832701440656e-10,
128,-5.000000000000000e-04,1.546666666666482e-02,9.707279379488038e-19,1.155959617520970e-18,-5.543280057036048e-10,-4.576465529182327e-10,-1.662871878150626e-10,3.463423431208748e-10,
129,-5.000000000000000e-04,1.559999999999862e-02,4.789264509735243e-19,-2.451974546665511e-18,5.850158008142121e-11,-1.818489669153856e-11,9.626536586733120e-11,2.072411599613702e-10,
130,-5.000000000000000e-04,1.573333333333242e-02,1.841558692492794e-19,-1.085069665828244e-18,-3.423376346635420e-10,-5.138437065654046e-10,-6.682901942883425e-11,2.174368967091025e-10,
131,-5.000000000000000e-04,1.586666666666621e-02,-1.956001504290712e-19,7.092653162896701e-19,5.914020792251415e-12,-2.213176205112487e-10,-1.435096829860119e-11,2.290371585003454e-10,
132,-4.000000000004066e-04,1.600000000000000e-02,2.982632214880709e-19,-6.994614736839062e-19,-2.815036036774878e-10,-2.566944490623899e-10,-2.902925715068065e-10,5.811149649087117e-10,
133,-3.000000000008132e-04,1.600000000000000e-02,-5.213013191028921e-20,-1.999006943628301e-18,-4.980385029719981e-10,-7.237741378120870e-10,8.399583342597235e-11,2.813854597671186e-10,
134,-2.000000000010842e-04,1.600000000000000e-02,2.963423840881689e-19,-3.996829487595897e-19,3.687224863188906e-10,5.155368041683528e-10,6.927678794918105e-11,2.018701001134792e-10,
135,-1.000000000012198e-04,1.600000000000000e-02,1.958255400194500e-19,-1.772463812350600e-18,-5.440198777555375e-10,-7.529162012688633e-10,3.690033408427362e-11,2.215495714270468e-10,
136,-1.355361135824129e-15,1.600000000000000e-02,-2.954102141741221e-20,6.301601947310779e-19,2.080050866656860e-10,4.200856714876244e-10,1.057971973760374e-10,2.995836483336703e-10,
137,9.999999999878032e-05,1.600000000000000e-02,-4.017249213403613e-19,-6.946441301783395e-21,-2.020253314171963e-10,-2.847226019798358e-10,-5.323795559286361e-11,1.348182414265269e-10,
138,1.999999999989157e-04,1.600000000000000e-02,-1.480205569181593e-19,1.157144943739072e-18,4.246683696513843e-11,-3.638062320375835e-11,-1.114463726994410e-10,2.364277858597349e-10,
139,2.999999999991868e-04,1.600000000000000e-02,1.421085966930449e-19,4.801511073127866e-19,-5.690298219627158e-10,-7.829411136708135e-10,-1.432905338997082e-11,2.158224450895628e-10,
140,3.999999999995934e-04,1.600000000000000e-02,-5.560321479764918e-19,4.895811041991194e-19,-2.493736445912192e-10,-2.471139062031257e-10,8.818296477404184e-11,1.763804057228076e-10,
141,5.000000000000000e-04,1.586666666666649e-02,7.725216755983427e-19,-1.567037924396005e-19,3.425160802325328e-10,4.476846395953012e-10,-4.840507154610792e-12,1.056131995372523e-10,
142,5.000000000000000e-04,1.573333333333297e-02,-3.522499906811039e-19,-1.904221420663534e-18,-2.012122219964440e-10,-1.179685193691736e-10,-7.758219364812696e-11,1.760837900322437e-10,
143,5.000000000000000e-04,1.559999999999946e-02,-1.452494063323867e-19,-3.181753591886156e-19,2.721636956987168e-10,4.508881186270478e-10,1.377693211195862e-10,3.284264951523729e-10,
144,5.000000000000000e-04,1.546666666666594e-02,7.567915724096107e-19,-3.599716026050277e-20,8.013470798253619e-11,-1.028117824403147e-10,1.598200429741484e-10,3.682922791792855e-10,
145,5.000000000000000e-04,1.533333333333243e-02,-3.885592824167467e-19,-1.203138847435895e-18,-2.621306330092421e-10,-2.027661471662039e-10,-5.001944903023600e-11,1.163267952991133e-10,
146,5.000000000000000e-04,1.519999999999892e-02,-1.562080660240812e-21,1.936844778230144e-18,3.384809995173012e-10,4.568340156500595e-10,2.173196776292460e-10,4.504650991666708e-10,
147,5.000000000000000e-04,1.506666666666540e-02,3.062071073667545e-20,-2.922404767373759e-18,6.202815936316810e-10,9.863444788360976e-10,-3.117786065136827e-10,7.230668252953089e-10,
148,5.000000000000000e-04,1.493333333333189e-02,-1.041227633292644e-18,8.651426360046411e-19,-3.747486460713359e-10,-3.942279219446501e-10,3.264430549777953e-11,6.813255399791020e-11,
149,5.000000000000000e-04,1.479999999999837e-02,-1.011491061967602e-19,1.697811542250645e-18,-4.055470881425728e-10,-4.053919775940222e-10,4.219461193019383e-11,8.438936640976091e-11,
150,5.000000000000000e-04,1.466666666666486e-02,-3.693471100871681e-20,1.696427072301573e-19,-1.669271132693518e-10,-2.304891872812585e-10,-3.519640098741716e-11,9.484347011029994e-11,
151,5.000000000000000e-04,1.453333333333135e-02,-6.564070927767046e-20,-2.314540007909111e-18,2.942181926597440e-10,5.334553301194015e-10,1.353295740125180e-10,3.612350790683672e-10,
152,5.000000000000000e-04,1.439999999999783e-02,-5.521811780250859e-19,-9.241482915769189e-19,5.216265630744327e-10,7.471359379994073e-10,-2.715760646180803e-10,5.881060394799798e-10,
153,5.000000000000000e-04,1.426666666666432e-02,-8.296972708925785e-19,-2.937515696698234e-19,6.363470686735005e-10,1.281363387945947e-09,6.351084728955181e-11,6.574044136005793e-10,
154,5.000000000000000e-04,1.413333333333080e-02,-5.487960217174406e-19,2.123391483378378e-18,2.976269974256703e-10,4.220921164876119e-10,2.893016933808301e-10,5.918390364238966e-10,
155,5.000000000000000e-04,1.399999999999729e-02,-4.563071321588464e-20,-4.580385136775801e-19,1.543996643741885e-10,3.231053995784325e-10,-1.975483307306889e-10,4.296079573154238e-10,
156,5.000000000000000e-04,1.386666666666378e-02,-8.673100301229748e-19,1.485103505788502e-19,1.518961648056571e-10,4.975482731559298e-10,1.322971436446793e-10,4.352993416870192e-10,
157,5.000000000000000e-04,1.373333333333026e-02,-4.907911038110804e-19,-1.176774492303525e-18,7.204959943407309e-11,1.817502940806278e-10,4.807277196288466e-12,1.101212153134193e-10,
158,5.000000000000000e-04,1.359999999999675e-02,-3.844434827594428e-19,2.670558603452688e-19,6.117328698953827e-10,8.421695533806023e-10,-1.742102844085737e-10,4.177295271710294e-10,
159,5.000000000000000e-04,1.346666666666323e-02,5.470964114188084e-20,2.059737416686016e-18,-3.053576978332366e-11,-1.000608232388051e-10,1.908679472124765e-10,3.880154973070102e-10,
160,5.000000000000000e-04,1.333333333332972e-02,-3.652683847076200e-19,-1.720351962942563e-18,-1.574103228715448e-10,-2.816816304017133e-10,-4.269302022633611e-11,1.507784261074610e-10,
161,5.000000000000000e-04,1.319999999999620e-02,-6.034936252156397e-19,2.737647144461522e-18,1.062304933670220e-09,1.541380279752760e-09,8.987121961924835e-11,5.116840154700070e-10,
162,5.000000000000000e-04,1.306666666666269e-02,1.340007080410335e-19,7.063427337731127e-19,7.786387423681544e-11,-5.422060288316710e-11,-2.513506347393369e-10,5.197642498590390e-10,
163,5.000000000000000e-04,1.293333333332918e-02,-5.441354287607999e-19,-2.356649110701108e-19,-1.905285573398111e-10,-2.197232779004296e-10,8.330425213489297e-11,1.691470526010663e-10,
164,5.000000000000000e-04,1.279999999999566e-02,7.442388895492299e-20,2.310131134594059e-18,5.692389994572409e-10,7.594017056039937e-10,4.189350419598246e-11,2.078030740492821e-10,
165,5.000000000000000e-04,1.266666666666215e-02,2.381549139370763e-20,-1.705685164589295e-18,-1.684217098906012e-10,-2.256407316082985e-10,-1.792724947968536e-10,3.630819824902937e-10,
166,5.000000000000000e-04,1.253333333332863e-02,-2.012913621097401e-21,-1.303423729252059e-18,3.066941287562407e-10,5.945510423960129e-10,-5.560347938902300e-11,3.085912999597968e-10,
167,5.000000000000000e-04,1.239999999999512e-02,3.047511371095834e-19,-3.339307391794488e-20,3.696603932074332e-10,3.363971525508749e-10,1.122967787648066e-12,3.333897727262362e-11,
168,5.000000000000000e-04,1.226666666666161e-02,-7.316681122141227e-19,-7.650506976093480e-19,-7.566064471294109e-11,8.169061514704289e-11,1.115950773402754e-10,2.730810577939312e-10,
169,5.000000000000000e-04,1.213333333332809e-02,2.997491175724368e-19,1.291270369875599e-18,9.971278894822476e-10,1.462835643775881e-09,9.895343083628712e-11,5.060146621455814e-10,
170,5.000000000000000e-04,1.199999999999458e-02,-4.022755609377564e-19,-1.750197541943738e-18,1.892496974286367e-10,4.296747555571777e-10,9.621598837125240e-11,3.079517401300734e-10,
171,5.000000000000000e-04,1.186666666666143e-02,4.305090164696432e-19,-1.109821124287724e-19,-3.659479676386454e-11,-2.628062864546232e-10,9.018563466757424e-11,2.893189120498086e-10,
172,5.000000000000000e-04,1.173333333332827e-02,6.145529154871279e-20,-8.183320977183439e-19,3.866509633223686e-10,5.628617823219027e-10,-1.319641035651648e-11,1.781764117880839e-10,
173,5.000000000000000e-04,1.159999999999512e-02,-7.788939086720567e-19,4.259338350929493e-19,1.132472620035143e-10,2.851378306689741e-10,6.700348046899232e-11,2.179546585323876e-10,
174,5.000000000000000e-04,1.146666666666197e-02,-4.858767311863728e-20,-2.293946797591373e-20,9.792473801327288e-11,1.594995847483269e-10,-1.562128699950056e-11,6.904752117584276e-11,
175,5.000000000000000e-04,1.133333333332882e-02,-3.592054921380845e-20,1.479271090667843e-18,-3.700124415876985e-10,-5.926518935984747e-10,-7.818227381398152e-11,2.720628555068777e-10,
176,5.000000000000000e-04,1.119999999999566e-02,-1.191652159792397e-19,-8.082994954725448e-19,4.732367452619716e-10,5.569244265091781e-10,3.998346946319365e-11,1.157511957337400e-10,
177,5.000000000000000e-04,1.106666666666251e-02,-5.917048832705815e-19,5.056269475069492e-19,1.220959491688294e-10,2.773351842841827e-10,-1.412903510318552e-12,1.552649519515522e-10,
178,5.000000000000000e-04,1.093333333332936e-02,-2.143218063458105e-19,-1.595685725007711e-18,4.582413714815668e-10,7.888423226476366e-10,-1.217271810982157e-10,4.105691359373978e-10,
179,5.000000000000000e-04,1.079999999999620e-02,-2.766049082807472e-19,9.223837322377770e-19,6.648080226958266e-11,1.136220732516301e-10,1.335892342160605e-10,2.713054246113349e-10,
180,5.000000000000000e-04,1.066666666666305e-02,6.890234809285867e-20,1.097912166921947e-19,-1.785125379786218e-10,-2.071029077682447e-10,-3.562813994452579e-11,7.677803506429578e-11,
181,5.000000000000000e-04,1.053333333332990e-02,-3.213460586863354e-19,-7.132254695347082e-19,6.685107737561787e-11,4.015985638354265e-11,-1.118150080015779e-11,3.482133137350601e-11,
182,5.000000000000000e-04,1.039999999999675e-02,-6.628859162157229e-20,-4.386778284230635e-19,4.241825226695816e-10,6.891235967366897e-10,1.129578217795289e-10,3.481833579201282e-10,
183,5.000000000000000e-04,1.026666666666359e-02,-7.617271942209010e-19,7.678476230880938e-19,3.666268185343900e-10,5.947283436598105e-10,4.094926805363626e-11,2.423585690274991e-10,
184,5.000000000000000e-04,1.013333333333044e-02,-2.050482276667786e-19,-5.330009991786965e-19,1.552450688704656e-10,1.299229215714431e-10,1.433659333320491e-11,3.825392499391628e-11,
185,5.000000000000000e-04,9.999999999997289e-03,-2.735825465295983e-19,4.610616293407382e-20,-3.861020181891011e-11,2.711228343632953e-11,1.078135199748920e-11,6.916932319822314e-11,
186,5.000000000000000e-04,9.866666666664137e-03,-3.725990252801543e-19,-2.081091629170004e-19,2.121534506462980e-10,3.822883135525320e-10,3.917199984631363e-11,1.873063102619915e-10,
187,5.000000000000000e-04,9.733333333330985e-03,-1.327359095559319e-19,-4.701429834587517e-19,-1.408822236392523e-10,-1.510437822490618e-10,1.224287237113995e-10,2.450682085293589e-10,
188,5.000000000000000e-04,9.599999999997832e-03,-8.537009774270201e-21,-6.583018265349784e-19,2.007645449239501e-10,3.900015838449826e-10,2.214392916790588e-11,1.943503828027444e-10,
189,5.000000000000000e-04,9.466666666664680e-03,2.124779854194290e-19,2.144476803387207e-19,2.641245728094851e-11,2.228434309959092e-12,-3.808780969580295e-11,7.992241210546732e-11,
190,5.000000000000000e-04,9.333333333331527e-03,-2.615769176963399e-19,-7.244889392710218e-19,-4.521010907742004e-10,-6.290379317125721e-10,8.573496253299134e-11,2.463911136453270e-10,
191,5.000000000000000e-04,9.199999999998374e-03,2.314752743778364e-19,9.428827847087618e-19,7.388255385194457e-12,-6.510547597664119e-11,1.058993474054327e-10,2.238616273735810e-10,
192,5.000000000000000e-04,9.066666666665221e-03,-8.006634243964940e-20,-8.375671952736118e-19,3.806467287482291e-10,5.862907678863187e-10,5.419768670748797e-11,2.324629600835371e-10,
193,5.000000000000000e-04,8.933333333332068e-03,1.068885312769486e-19,4.601392410929834e-19,-2.271190834985390e-10,-4.103289716697523e-10,-2.158098683530451e-11,1.882254475219831e-10,
194,5.000000000000000e-04,8.799999999998916e-03,3.622940080651084e-19,-4.506294522943325e-20,7.655329140272014e-11,4.966185297115915e-11,7.067797159367558e-12,3.038033060488796e-11,
195,5.000000000000000e-04,8.666666666665764e-03,-3.398700887845871e-19,-7.080728484083663e-19,-2.302205279303656e-10,-3.566479760987297e-10,-5.172137391976787e-12,1.268499257830700e-10,
196,5.000000000000000e-04,8.533333333332610e-03,-2.293929614943546e-19,5.819800158755498e-19,3.451746903496232e-10,5.989791610851230e-10,-5.502772524099463e-11,2.766385937394146e-10,
197,5.000000000000000e-04,8.399999999999460e-03,1.801970568335263e-20,-1.052519367106687e-19,-5.584510526690557e-11,-1.204741542402792e-10,-3.021281352469712e-11,8.847694827193810e-11,
198,5.000000000000000e-04,8.266666666666304e-03,-2.023363823144274e-19,-1.087443988585147e-18,2.347792778423752e-10,3.405543232787117e-10,-1.571819276538677e-11,1.103476622874200e-10,
199,5.000000000000000e-04,8.133333333333154e-03,1.851787148435076e-19,3.270947638867294e-19,4.831283469078933e-11,1.236307167589255e-12,1.611271723533045e-12,4.718669547564061e-11,
200,5.000000000000000e-04,8.000000000000000e-03,-6.739491860935918e-20,5.112347109318627e-19,-1.530300185285403e-10,-2.404957886503315e-10,-1.338579702208501e-10,2.816417684037330e-10,
201,5.000000000000000e-04,7.866666666666848e-03,2.722211198619969e-19,-4.707412009277518e-19,2.338987175075922e-10,1.904451683104275e-10,1.338388291516242e-10,2.711817466064798e-10,
202,5.000000000000000e-04,7.733333333333694e-03,-1.202173137676691e-19,-3.193839032176938e-19,1.424573485269066e-10,1.316510217050793e-10,-3.875882980583185e-11,7.826726168104963e-11,
203,5.000000000000000e-04,7.600000000000542e-03,3.553101495845414e-19,-1.448912089255424e-19,1.868233342895921e-10,2.158794545696327e-10,1.249943359375337e-10,2.516715998907868e-10,
204,5.000000000000000e-04,7.466666666667390e-03,-3.130068356224116e-20,-1.031375314687117e-18,2.883561035108972e-10,3.232072808705361e-10,-1.333128152298872e-10,2.688937176310096e-10,
205,5.000000000000000e-04,7.333333333334238e-03,6.341354475780240e-20,-9.615772627511146e-19,2.828361116898863e-10,4.375602188187452e-10,8.932158460075832e-11,2.363322475439700e-10,
206,5.000000000000000e-04,7.200000000001082e-03,-6.084998523925267e-20,-6.776655752272388e-19,1.522625881513103e-10,2.412838465928422e-10,-4.440468674590996e-11,1.257453350010393e-10,
207,5.000000000000000e-04,7.066666666667932e-03,2.356594423218516e-20,2.728539121149671e-19,1.524033237344608e-10,2.524980051987244e-10,3.690963065696297e-11,1.243713335072278e-10,
208,5.000000000000000e-04,6.933333333334780e-03,-1.646939150728184e-19,-5.503785006941245e-19,3.807841847236116e-10,6.041665877859607e-10,-9.066440639580197e-11,2.877148524951787e-10,
209,5.000000000000000e-04,6.800000000001628e-03,-2.379308197919047e-20,-2.156922471018695e-19,7.021259886933104e-12,3.354997342537684e-11,3.988841292357868e-11,8.407207969505978e-11,
210,5.000000000000000e-04,6.666666666668472e-03,-1.977298022320016e-19,-4.879596715966493e-19,1.923114498798605e-10,4.204650599565300e-10,-6.625995726481614e-11,2.638476786669878e-10,
211,5.000000000000000e-04,6.533333333335322e-03,-1.528357629119668e-19,-4.104600659492412e-19,4.545764125645347e-10,6.166819503260991e-10,6.199569975691865e-11,2.040883939041267e-10,
212,5.000000000000000e-04,6.400000000002170e-03,-9.742086762508700e-20,-4.727421240212609e-19,1.494935555318351e-10,3.120526041209913e-10,-8.516725409655887e-11,2.354554925237527e-10,
213,5.000000000000000e-04,6.266666666669017e-03,-1.793405412646860e-19,-2.406928273129446e-19,2.466571157677534e-11,6.500130607414511e-11,-3.939825976142311e-11,8.852034609269517e-11,
214,5.000000000000000e-04,6.133333333335862e-03,-1.277221657955204e-19,3.227563833060739e-19,2.541650603260480e-10,4.683137073068785e-10,-5.341858882003212e-11,2.393195051177714e-10,
215,5.000000000000000e-04,6.000000000002711e-03,-2.516159924107753e-19,-2.968733409452466e-20,-5.934172297518377e-11,-3.057931352427139e-11,6.642673532359157e-12,3.168243431385842e-11,
216,5.000000000000000e-04,5.866666666669559e-03,2.683718900051835e-23,1.217567868987926e-18,2.592591469450638e-10,3.336100465134532e-10,1.052915076042795e-10,2.233232244101739e-10,
217,5.000000000000000e-04,5.733333333336407e-03,1.623197126961104e-19,-1.058573302798280e-19,-1.812932381083257e-10,-1.790537084407427e-10,-1.438227237674169e-11,2.885159489538027e-11,
218,5.000000000000000e-04,5.600000000003252e-03,-1.187998429969281e-19,-7.587348184591508e-20,-7.363498198980994e-11,-9.220609190274556e-11,-5.841918204940641e-11,1.183050694124520e-10,
219,5.000000000000000e-04,5.466666666670101e-03,4.322862139820526e-20,8.455751680305576e-19,2.547083660907383e-10,4.359798323285804e-10,5.036837111055535e-11,2.073818596342014e-10,
220,5.000000000000000e-04,5.333333333336949e-03,-1.027763292656083e-19,-1.933812807046325e-19,-3.668287524316832e-11,-8.760608686017323e-12,-4.766785705638423e-11,9.934058261898865e-11,
221,5.000000000000000e-04,5.200000000003794e-03,-1.615373588438722e-19,2.041581004700774e-19,2.862964292544634e-11,4.354803358418013e-11,-5.656998290053739e-11,1.141192807605926e-10,
222,5.000000000000000e-04,5.066666666670641e-03,-1.509845836348371e-19,1.762015495256184e-20,1.837170471000230e-10,2.891888494995759e-10,7.947386888667418e-11,1.907581831656914e-10,
223,5.000000000000000e-04,4.933333333337491e-03,-2.815091596969141e-20,2.380079823792951e-19,6.258546614013235e-11,3.127601337971148e-11,-7.191961701769301e-11,1.472073608215418e-10,
224,5.000000000000000e-04,4.800000000004339e-03,-1.812339634720972e-19,-9.560163958750840e-20,1.023639520600126e-10,2.412838465928407e-10,-1.780425168830632e-11,1.434109570769762e-10,
225,5.000000000000000e-04,4.666666666671183e-03,1.332880573294542e-20,8.673939258170613e-20,-2.646610538216573e-11,-6.638959749033916e-11,6.903190676184918e-11,1.437202206609005e-10,
226,5.000000000000000e-04,4.533333333338031e-03,1.230597951318275e-19,3.197705328469784e-19,2.541933914120678e-11,2.314209948777237e-11,4.368322148851686e-11,8.739611649780817e-11,
227,5.000000000000000e-04,4.400000000004881e-03,1.246929059050826e-19,-4.786937318166471e-19,-1.205606695696045e-10,-1.845948999796367e-10,-7.913718646918147e-11,1.707371072533358e-10,
228,5.000000000000000e-04,4.266666666671729e-03,1.259954962244850e-19,-9.799343333813892e-20,6.614312885471972e-11,4.813865972692870e-11,5.344142834180076e-11,1.083886800428019e-10,
229,5.000000000000000e-04,4.133333333338573e-03,3.809691285764752e-20,2.620761726286911e-19,-6.464868554128423e-11,-8.580454874958013e-11,-6.653559467600364e-12,2.499299826838917e-11,
230,5.000000000000000e-04,4.000000000005421e-03,7.866070222626478e-22,-3.708593289825941e-19,1.580560820809355e-10,2.165209431738774e-10,1.134635297874686e-12,5.850888455314899e-11,
231,5.000000000000000e-04,3.866666666671908e-03,5.032533462170806e-20,-5.988415619497631e-19,-1.130338139038229e-11,-1.426252708908658e-11,2.574513562345902e-11,5.157523219867608e-11,
232,5.000000000000000e-04,3.733333333338395e-03,-1.206272139280586e-20,1.464320718442800e-19,1.826984586372586e-10,2.965899167001928e-10,1.346962638883401e-11,1.170341298934639e-10,
233,5.000000000000000e-04,3.600000000004879e-03,4.779206020574982e-20,4.055411397141608e-19,-3.823680041293870e-11,-4.354063667909646e-11,-2.780145361821182e-11,5.585529493504214e-11,
234,5.000000000000000e-04,3.466666666671366e-03,-1.443718393299426e-19,9.748106576798388e-20,-9.061716420229427e-12,4.327083302302116e-11,-5.092626126303015e-11,1.145104016068055e-10,
235,5.000000000000000e-04,3.333333333337851e-03,1.087384630823931e-19,2.520177493425452e-19,1.062328268690686e-10,1.558361889812660e-10,2.855052450119998e-12,4.993094061607016e-11,
236,5.000000000000000e-04,3.200000000004337e-03,-1.269046494695353e-19,-5.032074835294592e-20,3.262175205231191e-11,7.577575666523579e-11,-9.252897150744132e-12,4.695457950893875e-11,
237,5.000000000000000e-04,3.066666666670824e-03,-1.145810932761273e-19,2.660971524043142e-20,-4.613278687954083e-11,-2.934925895656920e-11,-4.043335849215336e-12,1.863011188102121e-11,
238,5.000000000000000e-04,2.933333333337309e-03,1.956136817728011e-19,-1.369415450710029e-20,4.701048645132669e-12,-6.166406951955428e-11,-5.662576630432937e-12,6.732449781019508e-11,
239,5.000000000000000e-04,2.800000000003794e-03,-2.453871590054339e-19,3.135177192819373e-19,1.402714669605427e-10,2.163977088560699e-10,2.009451257955290e-11,8.608346210728022e-11,
240,5.000000000000000e-04,2.666666666670281e-03,8.543235235912860e-20,1.751692106490670e-19,1.116099478043585e-10,1.086290302351714e-10,-8.913011779394521e-12,1.807354379950955e-11,
241,5.000000000000000e-04,2.533333333336767e-03,5.281632513647276e-21,-2.489117603003068e-19,-6.283506107569561e-11,-3.717409605660984e-11,-1.627209838901930e-12,2.586651064890704e-11,
242,5.000000000000000e-04,2.400000000003254e-03,-5.521257082304987e-20,-2.396399815459272e-20,-1.385215949564314e-10,-1.821413500597723e-10,5.509887460755572e-12,4.499020420709608e-11,
243,5.000000000000000e-04,2.266666666669739e-03,-2.639494139831673e-20,1.590731241779066e-20,8.070733583062014e-12,6.984694206279902e-12,-6.564336683099402e-12,1.317351683812106e-11,
244,5.000000000000000e-04,2.133333333336224e-03,-8.700137494544258e-21,-1.603448601543394e-19,-7.783100700870329e-11,-8.879343537645132e-11,5.727366081629038e-11,1.150706901383490e-10,
245,5.000000000000000e-04,2.000000000002711e-03,2.819930920802233e-20,7.648390555353128e-20,8.780031723671263e-11,1.720806817446893e-10,-9.856466346754718e-12,8.655506661643936e-11,
246,5.000000000000000e-04,1.866666666669197e-03,-7.290216176469112e-21,2.459169242964172e-20,9.854659004960726e-11,1.447250559726834e-10,-2.404172423786819e-12,4.642812612180138e-11,
247,5.000000000000000e-04,1.733333333335682e-03,1.313166209973488e-20,8.560513571889057e-20,1.859501708598943e-11,8.103974764297116e-11,5.861726418632009e-12,6.353568855975042e-11,
248,5.000000000000000e-04,1.600000000002169e-03,-6.486918393361550e-21,-1.345463563664254e-19,-6.465295614642614e-12,-2.142139625922792e-11,-1.199403806832394e-11,2.826858226421305e-11,
249,5.000000000000000e-04,1.466666666668654e-03,-4.432108531968202e-20,2.338133655066945e-19,5.555139443777381e-11,6.317018034321704e-11,7.126211364416211e-12,1.616098549947739e-11,
250,5.000000000000000e-04,1.333333333335140e-03,4.123954926695205e-20,-3.921896171612511e-21,-1.162839629764942e-11,-2.358180750256507e-11,-7.359086609624593e-12,1.896071365602115e-11,
251,5.000000000000000e-04,1.200000000001627e-03,7.358843027281499e-20,-6.207734651210547e-20,5.978882789506069e-11,6.414522506501562e-11,1.427234537304369e-11,2.887520677141824e-11,
252,5.000000000000000e-04,1.066666666668112e-03,-2.437422589356729e-20,4.673864227975592e-20,-2.131837066192882e-11,-2.313782888263083e-11,-2.892762435971607e-12,6.064876442331998e-12,
253,5.000000000000000e-04,9.333333333345975e-04,4.566047855938321e-20,-9.392633249222556e-20,-3.169608482659218e-11,-2.048989527839444e-11,-1.144304932224836e-11,2.548238990667420e-11,
254,5.000000000000000e-04,8.000000000010846e-04,2.477078328482901e-20,-1.789701655610920e-20,-2.677674532403494e-12,8.891239908911955e-12,5.240369880981169e-12,1.561043520560703e-11,
255,5.000000000000000e-04,6.666666666675699e-04,-1.363784291903085e-20,-9.569305169826343e-20,-6.035119807506333e-12,8.255012907177620e-12,5.214613481656404e-12,1.769114660092927e-11,
256,5.000000000000000e-04,5.333333333340570e-04,-2.396738671333220e-20,2.851191122438761e-20,3.279009326105868e-11,4.490601191960741e-11,8.047894061293973e-12,2.014621255292947e-11,
257,5.000000000000000e-04,4.000000000005423e-04,6.558528487187688e-20,-1.024143335901267e-19,2.164338556919504e-11,1.656153861300472e-11,-9.194482945695615e-12,1.907823983078342e-11,
258,5.000000000000000e-04,2.666666666670293e-04,1.399984746067288e-20,-2.482324724234090e-20,-1.984569921897555e-11,-2.335981819259800e-11,4.375252162880685e-12,9.429759175925012e-12,
259,5.000000000000000e-04,1.333333333335129e-04,-1.883860265537491e-20,3.290728294460144e-20,3.811570139769869e-11,3.085964038537316e-11,6.196702648003821e-12,1.436129925339978e-11,
260,3.999999999996002e-04,1.586666666666646e-02,5.545847711790066e-19,-5.692581946799219e-19,-9.988016571329968e-11,-2.514146732771196e-10,2.327735377634593e-11,1.585245967600172e-10,
261,2.999999999992002e-04,1.586666666666643e-02,1.380470249628795e-19,1.849509909060416e-19,2.217822677751539e-11,4.668890445965727e-11,2.972692583284529e-11,6.430811611549342e-11,
262,1.999999999989337e-04,1.586666666666640e-02,6.512092270416969e-19,1.850396494688890e-19,-1.420355045076739e-10,-2.455208612053689e-10,-2.418046755659477e-12,1.035982956003592e-10,
263,9.999999999880059e-05,1.586666666666638e-02,7.918740209520001e-21,-5.707694256598248e-19,2.019599391518272e-10,1.912083280825039e-10,6.116907359965315e-12,1.628690772330890e-11,
264,-1.332755520527806e-15,1.586666666666635e-02,8.322738638150938e-20,-1.431306378799653e-19,5.542396616873711e-11,1.362103848484240e-11,-3.447930016982692e-11,8.063977507253499e-11,
265,-1.000000000011995e-04,1.586666666666632e-02,-3.475215438940163e-19,7.639128306459257e-19,-7.371823564644138e-10,-1.117785750894075e-09,2.228961926521860e-11,3.832052352973984e-10,
266,-2.000000000010662e-04,1.586666666666629e-02,-1.256517237085320e-21,-2.373411350062727e-20,1.210154369314019e-11,3.397858608252574e-11,-1.775471336639250e-13,2.187992403199018e-11,
267,-3.000000000007996e-04,1.586666666666626e-02,-2.805835784153231e-19,8.455631339496119e-19,5.248950921807136e-11,1.322432861210751e-10,-9.477915852440056e-11,2.056526695490917e-10,
268,-4.000000000003999e-04,1.586666666666623e-02,3.686812493426546e-19,-3.958604914023743e-19,7.112458101486973e-11,1.158611840744465e-10,6.060641734335376e-11,1.292049339077158e-10,
269,3.999999999996069e-04,1.573333333333292e-02,1.521741856085693e-19,9.625153867644886e-19,3.712044795537789e-11,7.326585118896611e-11,-2.745572299366119e-10,5.503028077493164e-10,
270,2.999999999992138e-04,1.573333333333286e-02,-2.423420982273287e-19,2.035341015830328e-18,-2.752085751517879e-10,-5.014739223661592e-10,-1.505686706464664e-11,2.282604747503381e-10,
271,1.999999999989518e-04,1.573333333333280e-02,-3.557156580571189e-19,1.186497714188686e-18,-2.425259875155453e-10,-3.329481958808690e-10,1.702203297477587e-10,3.522442595748082e-10,
272,9.999999999882095e-05,1.573333333333275e-02,-3.513481220689668e-20,9.206449803527727e-19,2.788060831547701e-10,2.955410151566434e-10,-8.364982120888666e-11,1.681345541589300e-10,
273,-1.310149905231484e-15,1.573333333333270e-02,-1.018750959985405e-18,-9.942098231486537e-19,-3.446568959867259e-11,-6.874866302320061e-11,1.783835899343120e-11,4.947878811309959e-11,
274,-1.000000000011791e-04,1.573333333333264e-02,-1.462508473212899e-19,-9.369087426394574e-19,2.252252729574208e-10,4.476082286262345e-10,-8.103059848961014e-11,2.751690581048953e-10,
275,-2.000000000010481e-04,1.573333333333258e-02,-4.026980529953981e-19,9.640535711148501e-19,-1.789607872036981e-10,-2.084709904639289e-10,-1.353955805163936e-11,4.005159953603579e-11,
276,-3.000000000007861e-04,1.573333333333253e-02,2.268484662582753e-19,-3.510092682744891e-19,2.779960439193337e-11,1.396655530395663e-10,1.175346783015989e-10,2.603297771686447e-10,
277,-4.000000000003932e-04,1.573333333333247e-02,1.417373211891799e-19,-4.028386291734640e-19,2.234517032026375e-10,3.347921334272209e-10,1.901669000979776e-11,1.176572539128392e-10,
278,3.999999999996137e-04,1.559999999999937e-02,-6.677598346129541e-20,-5.194468156457879e-19,-3.523441758912486e-12,2.868855262915375e-11,-1.072170513379876e-10,2.168400262241901e-10,
279,2.999999999992274e-04,1.559999999999929e-02,6.691724980704341e-20,-1.388747313169007e-19,-2.459230686566910e-10,-4.009103641115278e-10,-9.602262374152388e-12,1.561725824951779e-10,
280,1.999999999989699e-04,1.559999999999921e-02,-2.245758383880275e-19,4.201167966270600e-19,-3.800561041361247e-10,-5.712341957917876e-10,1.224907597150760e-11,1.927413348966019e-10,
281,9.999999999884136e-05,1.559999999999913e-02,-1.726733968573238e-20,-7.672057721663468e-19,6.675865163725065e-11,2.276480142978244e-10,2.217046714221907e-11,1.668877031735487e-10,
282,-1.287598500043785e-15,1.559999999999904e-02,4.543037073039586e-19,6.360366820075382e-19,3.265336314898896e-10,5.342055247682375e-10,-9.097522599515526e-11,2.761042959413921e-10,
283,-1.000000000011588e-04,1.559999999999895e-02,2.258801717125834e-19,-8.327891626704823e-19,5.810800622795874e-10,8.901791450345968e-10,4.391435807287715e-11,3.213349130421397e-10,
284,-2.000000000010299e-04,1.559999999999887e-02,5.713255757337053e-19,-9.531732441716942e-19,-4.811946349638103e-10,-7.462644910275505e-10,4.662850945141045e-11,2.809962636198089e-10,
285,-3.000000000007725e-04,1.559999999999879e-02,5.322076743815558e-20,4.519055575776729e-19,-1.197595903892815e-10,-1.438499105482438e-10,-1.038006580321930e-10,2.089943778120035e-10,
286,-4.000000000003863e-04,1.559999999999870e-02,7.836745815621521e-19,4.505431093642115e-19,-3.329647061488395e-11,2.504864519040477e-11,1.810338632157615e-11,6.866646141724120e-11,
287,3.999999999996204e-04,1.546666666666583e-02,2.006931178831877e-19,-1.290332466348111e-18,4.412998161324928e-10,5.004654382636322e-10,1.006585484100003e-10,2.098312281673016e-10,
288,2.999999999992411e-04,1.546666666666572e-02,-9.966371779669008e-20,-3.096943396249975e-19,-8.634535648148775e-11,-2.171634227755030e-10,-3.561759244117993e-11,1.489557586470875e-10,
289,1.999999999989880e-04,1.546666666666561e-02,-3.190111659255325e-19,-1.983516155011460e-18,-1.632539758722413e-10,-2.987264207704818e-10,3.400936660471953e-12,1.356430934746808e-10,
290,9.999999999886155e-05,1.546666666666549e-02,-3.115151089107688e-19,1.353095584347503e-18,-1.246844775706483e-10,-1.737615396848084e-10,-1.680934594038148e-13,4.907821357182340e-11,
291,-1.264965779693150e-15,1.546666666666538e-02,-2.416715785471172e-19,-8.964300997943096e-19,-2.228162577759037e-10,-3.229433109695960e-10,1.992269096089285e-11,1.077640071719006e-10,
292,-1.000000000011385e-04,1.546666666666527e-02,-3.160809489809361e-19,1.580739869483416e-18,-2.356717917636854e-10,-3.125933557383364e-10,-6.680410513446595e-11,1.541690009553589e-10,
293,-2.000000000010119e-04,1.546666666666516e-02,-2.294870209701481e-20,-1.257520872038099e-19,5.498010528135972e-12,8.219865284410357e-11,-1.168437189512998e-10,2.459528555743221e-10,
294,-3.000000000007589e-04,1.546666666666505e-02,3.114202287492032e-20,-6.298246550074114e-19,6.747933531966675e-11,8.714289051709854e-11,3.223006780601220e-11,6.739261447757480e-11,
295,-4.000000000003795e-04,1.546666666666494e-02,-1.043586598851257e-19,3.783222376825640e-19,2.198142171427050e-11,1.900872861750453e-10,-4.147773654635877e-11,1.874598415184996e-10,
296,3.999999999996272e-04,1.533333333333229e-02,4.491703233837112e-20,8.570257697272616e-19,-2.858560368579756e-11,1.199992903869708e-10,1.194513998835610e-10,2.813396852262144e-10,
297,2.999999999992545e-04,1.533333333333215e-02,4.869725042427271e-19,-1.276722781023077e-18,-3.611745637037111e-10,-5.918865985238246e-10,-1.446505092658379e-12,2.307301725366007e-10,
298,1.999999999990060e-04,1.533333333333201e-02,-2.450328547272369e-19,-7.535463123034039e-19,3.694603851903322e-10,4.598658738653034e-10,-1.648775396141965e-10,3.419233315518030e-10,
299,9.999999999888193e-05,1.533333333333187e-02,-4.387766071959907e-21,-1.460569065672400e-19,-9.451150933438084e-11,-7.460632825907288e-11,9.358084228411579e-12,2.732235706056455e-11,
300,-1.242414374505452e-15,1.533333333333173e-02,7.369584387415635e-20,5.782308434856634e-20,1.121763791671226e-10,1.721726119843684e-10,-1.018993906807983e-10,2.124464432197748e-10,
301,-1.000000000011181e-04,1.533333333333159e-02,5.007122704231314e-20,-1.774877153719505e-19,6.369911114249588e-11,1.111500310690359e-10,-4.863577927264703e-11,1.082282121431630e-10,
302,-2.000000000009938e-04,1.533333333333145e-02,1.309687529170191e-19,-9.436667433686776e-19,1.539800884259935e-10,2.039610458953910e-10,7.431771495134181e-11,1.568138614150972e-10,
303,-3.000000000007454e-04,1.533333333333132e-02,-1.584340547662512e-19,3.900795986700703e-19,2.972771254266316e-11,1.341925789537566e-11,7.624113892198028e-13,1.637958416713567e-11,
304,-4.000000000003728e-04,1.533333333333117e-02,-8.775223300538440e-20,-2.585208261606097e-19,3.661649198043900e-11,-8.188358898926887e-11,-1.741496110262833e-10,3.679057179118727e-10,
305,3.999999999996340e-04,1.519999999999874e-02,-1.399362123737610e-19,-1.004868808821484e-18,1.978778051260292e-11,3.745129661775532e-11,6.259492169387044e-12,2.165005242652887e-11,
306,2.999999999992680e-04,1.519999999999858e-02,5.402514114901681e-20,-5.212557350959782e-20,-3.062958291798404e-10,-4.854823041460486e-10,-2.123028704778736e-11,1.841485627512238e-10,
307,1.999999999990241e-04,1.519999999999841e-02,-2.835711814231252e-19,4.152237533339637e-19,3.791251753078847e-10,5.251556291660599e-10,3.399854705370870e-11,1.610853756896560e-10,
308,9.999999999890224e-05,1.519999999999824e-02,-2.123547535624483e-19,-1.916430856577524e-18,-5.100059264120958e-10,-7.269302213425026e-10,-7.847289854960376e-11,2.677463967230179e-10,
309,-1.219835864263441e-15,1.519999999999808e-02,-7.664380739363298e-20,1.400710699015825e-18,2.553421717135971e-10,4.297635594968950e-10,-2.927005294720454e-11,1.839830549653424e-10,
310,-1.000000000010978e-04,1.519999999999791e-02,-1.215745418176702e-21,1.415209004875753e-18,5.622431332394186e-10,8.986816175747662e-10,1.093068682993344e-10,4.012266436460794e-10,
311,-2.000000000009757e-04,1.519999999999774e-02,1.829544019858908e-19,-1.837524013555443e-18,3.901807343350569e-10,5.653530422276160e-10,-8.049606067252371e-11,2.379155324639063e-10,
312,-3.000000000007318e-04,1.519999999999757e-02,-1.227474402461998e-19,-1.401982819048613e-19,3.635309423207388e-11,7.740140335416607e-11,-8.904290643734571e-11,1.827553567724417e-10,
313,-4.000000000003660e-04,1.519999999999740e-02,3.081401982996896e-19,2.163233840274916e-19,5.520169078246509e-11,2.808170081822966e-10,1.098271319182213e-10,3.148813539524948e-10,
314,3.999999999996409e-04,1.506666666666521e-02,1.590102973446226e-19,-5.298666519142350e-19,1.903850020723550e-11,4.958429769688301e-11,-5.818669759169170e-11,1.203154722003221e-10,
315,2.999999999992816e-04,1.506666666666501e-02,9.051036712017226e-20,8.286751215745763e-20,-2.131685500789261e-10,-3.642747310618848e-10,-2.034019450534966e-11,1.564863316117946e-10,
316,1.999999999990422e-04,1.506666666666482e-02,-6.485150628827214e-20,-3.201733367801070e-19,6.107266333245446e-11,1.078514954976836e-10,3.122323753603029e-11,7.802449222947982e-11,
317,9.999999999892259e-05,1.506666666666462e-02,1.898732248976873e-19,-1.357689515244414e-19,6.444825867941093e-11,1.350521640289693e-10,2.277070437485993e-12,7.075063003054104e-11,
318,-1.197230248967118e-15,1.506666666666442e-02,1.387048340637166e-19,-2.933125498821778e-19,-2.423516031292920e-10,-3.702408368053661e-10,3.313161363758214e-11,1.440363543664362e-10,
319,-1.000000000010775e-04,1.506666666666423e-02,1.495301345580592e-19,5.524860333233848e-19,4.164720940731417e-12,-6.766830409372638e-11,-3.489744236834194e-11,1.001564247615101e-10,
320,-2.000000000009577e-04,1.506666666666403e-02,-1.779785980184617e-19,9.739852102538403e-20,2.659467179459781e-10,4.235532737281689e-10,-3.779137036854499e-11,1.747929550149404e-10,
321,-3.000000000007183e-04,1.506666666666384e-02,3.024759756120490e-19,-1.426038061433339e-18,-3.290562721276630e-10,-4.026495596027795e-10,-4.059474080406691e-11,1.095796691233944e-10,
322,-4.000000000003592e-04,1.506666666666364e-02,2.840349972393970e-19,6.431081605290350e-19,1.130214975870841e-10,9.086561483264821e-11,-1.404307382682016e-10,2.817340095601468e-10,
323,3.999999999996475e-04,1.493333333333166e-02,-6.561845389721106e-19,1.241146473847101e-20,-1.278932182049185e-10,-1.566667996673728e-10,-1.950435540884660e-11,4.847265734241221e-11,
324,2.999999999992951e-04,1.493333333333144e-02,-8.811867553036809e-19,2.095625340097215e-19,1.712174899067652e-10,4.042726521443496e-10,9.950970034835766e-11,3.064692978085514e-10,
325,1.999999999990603e-04,1.493333333333122e-02,1.341364007467673e-19,5.187948905739432e-19,-1.694518892096814e-10,-1.438020962021381e-10,4.195575989172275e-11,8.774425926348336e-11,
326,9.999999999894295e-05,1.493333333333099e-02,-3.108258037864263e-19,1.485800606704301e-19,2.077399163449659e-10,2.159187277054549e-10,7.509474905530339e-11,1.504120284351834e-10,
327,-1.174624633670796e-15,1.493333333333077e-02,-3.510118305280081e-19,4.060151905424045e-19,-7.104168748417517e-11,-7.595248577645075e-11,-1.628613619065437e-10,3.257597408337689e-10,
328,-1.000000000010572e-04,1.493333333333055e-02,-1.396775635446535e-19,-6.148958752766852e-19,-2.251725391997616e-11,5.925192803806929e-11,-4.187900701941183e-11,1.170538509995110e-10,
329,-2.000000000009397e-04,1.493333333333033e-02,1.245799481052183e-19,1.036623729049295e-18,2.026845307091615e-10,3.324361941943015e-10,1.221144874607617e-10,2.765561179369916e-10,
330,-3.000000000007048e-04,1.493333333333010e-02,-1.129062288264056e-20,-9.316343527315067e-19,-8.116852963959520e-11,-2.101347659834845e-10,1.151012987752876e-10,2.638664928249512e-10,
331,-4.000000000003524e-04,1.493333333332987e-02,-2.064511544957616e-19,-6.492487635591689e-19,2.188159701689552e-10,3.808755428106862e-10,4.228582697911682e-11,1.827995342938590e-10,
332,3.999999999996542e-04,1.479999999999812e-02,4.260028356701115e-19,-8.162351852064620e-19,1.038286544452787e-10,2.085532351881129e-10,-4.173377058175457e-11,1.339181400693890e-10,
333,2.999999999993087e-04,1.479999999999787e-02,1.115929219808261e-19,1.648198905856312e-19,-1.689723003313348e-11,-9.234213803599188e-11,-8.735592866580747e-11,1.903054577142294e-10,
334,1.999999999990783e-04,1.479999999999762e-02,2.142757100270765e-20,-6.007341984622203e-19,-2.731755921774797e-10,-5.044521324801636e-10,-6.967430595059233e-11,2.700127288354494e-10,
335,9.999999999896330e-05,1.479999999999737e-02,-4.130889810011041e-19,7.626309801726589e-19,4.222568358977221e-10,6.549399504569224e-10,7.945581463221144e-11,2.817700085467638e-10,
336,-1.152073228483097e-15,1.479999999999711e-02,1.212488470174153e-19,-1.356249478315381e-18,-1.511613922341481e-10,-7.534287340293340e-11,5.038459838834158e-12,7.648524111192590e-11,
337,-1.000000000010368e-04,1.479999999999686e-02,4.017282200323343e-19,8.569509681819225e-20,-1.390328150680214e-10,-2.399058128447658e-10,-3.458919625172708e-11,1.223152143841029e-10,
338,-2.000000000009216e-04,1.479999999999661e-02,1.590819450656241e-21,-1.400071528566556e-18,4.976676557133677e-10,7.106818768187127e-10,-2.994203033247090e-11,2.212716862023680e-10,
339,-3.000000000006912e-04,1.479999999999636e-02,1.743161586878873e-19,1.877712546123344e-18,-5.064622759326985e-10,-7.343041017623052e-10,-1.373541588146850e-10,3.568985253151485e-10,
340,-4.000000000003456e-04,1.479999999999611e-02,1.891915706759528e-19,2.537094304392965e-19,1.387658516355675e-10,1.713466907481724e-10,-6.733550149384889e-11,1.385560901692666e-10,
341,3.999999999996611e-04,1.466666666666458e-02,3.275191107601621e-20,-1.089620758431225e-19,2.885489240452951e-10,4.296037594984344e-10,6.750786555839609e-11,1.952580709054407e-10,
342,2.999999999993222e-04,1.466666666666430e-02,-3.570115024731146e-20,1.705986561486804e-19,5.474682622729408e-11,6.318726276380021e-12,-4.290839420620316e-11,9.853832776273117e-11,
343,1.999999999990964e-04,1.466666666666402e-02,-3.181641394025579e-19,1.413581776036055e-18,1.205707739298598e-10,1.629695878283807e-10,9.088468951764581e-12,4.613090603435147e-11,
344,9.999999999898366e-05,1.466666666666374e-02,-1.115499951808164e-19,8.127937342748258e-19,-3.319931504572034e-10,-3.977924094117328e-10,-3.267190598854125e-12,6.612292050871736e-11,
345,-1.129467613186774e-15,1.466666666666346e-02,2.273969262170356e-19,5.367186095676106e-20,-1.610049139970046e-10,-1.904426141630891e-10,-5.221070683703884e-11,1.084915195983592e-10,
346,-1.000000000010165e-04,1.466666666666318e-02,1.599911237472096e-19,-6.246232064661830e-19,-3.676730126227795e-10,-5.920500969748487e-10,6.520244527177329e-11,2.595197708460956e-10,
347,-2.000000000009034e-04,1.466666666666291e-02,-1.001192910144020e-20,-6.776245308679536e-19,3.501358571353532e-10,4.962220177434072e-10,-2.854755526804708e-11,1.568471165445222e-10,
348,-3.000000000006777e-04,1.466666666666263e-02,-8.751361840213681e-21,-8.402396118680414e-19,-3.401942291868643e-10,-4.873622352204755e-10,1.246180751444410e-10,2.894427069572340e-10,
349,-4.000000000003389e-04,1.466666666666235e-02,1.256529803519866e-19,3.636104959138289e-19,4.430390882776545e-10,7.370004218652198e-10,2.902223262140069e-11,2.996371565575649e-10,
350,3.999999999996680e-04,1.453333333333104e-02,3.238046537725686e-20,-4.279092235563979e-19,3.034821085141961e-11,9.408133352723847e-11,-6.329803772670512e-11,1.417338253424937e-10,
351,2.999999999993358e-04,1.453333333333073e-02,1.402163958797684e-19,1.329843067975544e-19,-1.262044678610002e-11,-7.968020615756822e-11,7.634293127602364e-11,1.667632571948086e-10,
352,1.999999999991144e-04,1.453333333333043e-02,-2.331987938729648e-19,-1.476052382073531e-18,-2.479602455822249e-10,-3.684744545333132e-10,-7.562321053370953e-11,1.933886099148799e-10,
353,9.999999999900396e-05,1.453333333333011e-02,1.928175010850276e-19,-4.772054590871209e-19,-2.376842032872618e-10,-3.328552746438266e-10,-7.258056852700438e-11,1.735779033574523e-10,
354,-1.106861997890451e-15,1.453333333332981e-02,-1.436132030303706e-19,8.971595758502913e-19,2.430793976404886e-10,3.705493414446693e-10,9.453969593404759e-11,2.280342145438918e-10,
355,-1.000000000009962e-04,1.453333333332950e-02,2.216516071237562e-19,1.037716281313766e-18,-6.074843000017907e-11,6.283620538089063e-11,5.157034975637658e-11,1.609694567247215e-10,
356,-2.000000000008854e-04,1.453333333332919e-02,6.979798314404990e-19,2.263580662375914e-18,3.124891091819118e-10,4.616624159103040e-10,7.435278455419737e-11,2.106324327451368e-10,
357,-3.000000000006641e-04,1.453333333332889e-02,2.088321266244816e-19,-5.874011466815650e-19,8.764606491707238e-11,3.992109126876504e-12,8.282494658101943e-12,8.527826915688424e-11,
358,-4.000000000003321e-04,1.453333333332857e-02,1.601299947367929e-19,3.781774779211305e-19,-7.865357198322194e-11,-1.465136289600346e-10,-1.212409741379471e-10,2.517984959696338e-10,
359,3.999999999996747e-04,1.439999999999749e-02,-6.790941328228627e-19,1.003521766401764e-18,1.408442275770983e-10,3.496117690937962e-10,-8.398665367885588e-12,2.094422037478910e-10,
360,2.999999999993495e-04,1.439999999999716e-02,1.249919076029697e-19,-1.231529414414811e-18,7.618600982815355e-11,2.870603144869672e-10,7.104317022125986e-11,2.542764253832544e-10,
361,1.999999999991325e-04,1.439999999999683e-02,1.885012580933310e-19,-1.106620554870722e-19,7.143579310933775e-11,1.961147024618341e-11,-6.850599755130498e-11,1.464856554145220e-10,
362,9.999999999902424e-05,1.439999999999649e-02,-3.534282911476666e-19,-7.655536009200025e-19,6.423864180074457e-11,7.155681547066074e-11,-3.344508714058519e-11,6.728930881818003e-11,
363,-1.084283487648441e-15,1.439999999999616e-02,5.505742349117393e-20,6.400884748946099e-19,2.708222276312642e-10,4.639005357357571e-10,-7.061057255141607e-11,2.392125516870899e-10,
364,-1.000000000009759e-04,1.439999999999582e-02,-3.283834815292407e-20,1.678925878842345e-19,2.575355268389576e-10,3.865963242237727e-10,-4.052206364626767e-11,1.523969815652955e-10,
365,-2.000000000008673e-04,1.439999999999548e-02,8.137405066606152e-20,-1.297116732168581e-18,2.924656132004643e-10,4.752315227517426e-10,-2.915755398214987e-11,1.918437632840694e-10,
366,-3.000000000006505e-04,1.439999999999515e-02,1.531594276922673e-19,1.288533185669899e-18,9.824548231537577e-11,1.309819274752081e-10,1.223454777201620e-10,2.468710969635801e-10,
367,-4.000000000003252e-04,1.439999999999481e-02,-9.753523156727088e-20,-8.286511538348537e-19,-1.512152497578120e-11,-8.200098955197964e-11,1.531261950750340e-10,3.134699176230926e-10,
368,3.999999999996815e-04,1.426666666666396e-02,2.323074905137806e-20,-1.991398729822643e-19,-5.839470272376027e-11,9.531352339750684e-11,2.740062795174896e-11,1.631851599439950e-10,
369,2.999999999993630e-04,1.426666666666359e-02,1.338754359354035e-19,-5.986791223654042e-19,-3.592569226434529e-10,-5.536509424160844e-10,9.934321725970048e-12,1.954067499243120e-10,
370,1.999999999991505e-04,1.426666666666323e-02,-8.767436295920031e-20,-6.636994151470050e-19,1.341678285877314e-10,2.123286166075280e-10,1.163268106901888e-10,2.454318975302105e-10,
371,9.999999999904448e-05,1.426666666666286e-02,1.492922656118259e-19,1.836100334063962e-19,-2.526405900081646e-10,-3.515676922925360e-10,-9.907738410382877e-12,1.008921438369548e-10,
372,-1.061732082460742e-15,1.426666666666250e-02,7.187074552457328e-20,5.570318590646846e-19,-2.689732379047816e-10,-3.355770650697887e-10,-3.972187834722024e-11,1.036695725406041e-10,
373,-1.000000000009556e-04,1.426666666666214e-02,5.284524487218681e-19,1.931867678570192e-18,2.304170469173539e-11,7.516713528910309e-11,1.095087110444691e-11,5.653978092233678e-11,
374,-2.000000000008492e-04,1.426666666666178e-02,2.714504731091968e-19,-9.965067470899210e-19,-1.750249569793307e-10,-2.644811573318321e-10,-1.184174594866700e-10,2.531663299623695e-10,
375,-3.000000000006370e-04,1.426666666666141e-02,5.593729087618367e-19,-1.767864670983594e-19,3.838134887915103e-10,5.363676524693779e-10,-6.367495622011296e-11,1.987228548858606e-10,
376,-4.000000000003185e-04,1.426666666666105e-02,8.933189930648589e-20,1.959038426335470e-19,2.065184029875446e-10,2.960061934944767e-10,-4.264801804659092e-11,1.236263662129643e-10,
377,3.999999999996881e-04,1.413333333333041e-02,-6.604652184828125e-19,-1.177102799917674e-18,-4.149749418321726e-10,-5.893123684334879e-10,-1.518754605864541e-10,3.502258705854827e-10,
378,2.999999999993764e-04,1.413333333333002e-02,-3.033835588777553e-19,9.749056018408473e-19,1.279073070940178e-10,3.276359717122557e-10,-2.734571680549694e-11,2.070813665702694e-10,
379,1.999999999991686e-04,1.413333333332963e-02,8.143626236733601e-20,1.132019569079467e-18,-2.448495550190265e-10,-2.914555659479808e-10,5.969569210079194e-11,1.281656072286167e-10,
380,9.999999999906492e-05,1.413333333332924e-02,7.760797688653913e-20,-3.646230498994766e-19,-4.323272458428578e-10,-5.732840312249144e-10,6.017882956361770e-11,1.853504287986166e-10,
381,-1.039099362110107e-15,1.413333333332884e-02,5.099213832498356e-19,1.532965307931040e-18,1.545180559342612e-10,1.404122025436910e-10,7.010449547032136e-11,1.409167706146770e-10,
382,-1.000000000009352e-04,1.413333333332845e-02,-4.669409950161619e-19,-1.156403052798092e-18,-1.365874436282118e-10,-2.616038375125277e-10,-2.399479064223561e-11,1.339107861663775e-10,
383,-2.000000000008312e-04,1.413333333332806e-02,1.935581636729447e-19,1.112282313809351e-18,-3.398080926193763e-10,-4.332467932371720e-10,1.000989590837277e-10,2.209298468105323e-10,
384,-3.000000000006233e-04,1.413333333332767e-02,-3.547695396459991e-20,-1.202714263122807e-18,1.387531164740562e-10,1.712001214099099e-10,3.471423091158425e-11,7.663628018398647e-11,
385,-4.000000000003118e-04,1.413333333332728e-02,-9.808128827258630e-20,6.453451374746393e-20,2.352882859974439e-10,4.029034251434607e-10,1.387431270946626e-11,1.698965010928088e-10,
386,3.999999999996950e-04,1.399999999999687e-02,2.157822390097002e-19,1.477206362868583e-18,-1.037352377095556e-10,-1.557380061417126e-10,7.402428318419723e-11,1.569161111178372e-10,
387,2.999999999993901e-04,1.399999999999645e-02,-1.842026940902703e-21,8.341633969595068e-21,1.426969157561226e-10,1.813352186993144e-10,-1.119484130639020e-11,4.465664946937804e-11,
388,1.999999999991867e-04,1.399999999999603e-02,8.579559160841225e-20,-4.967802834373803e-19,3.862996965170905e-10,6.233989761788778e-10,-1.032608553262974e-10,3.144316863597122e-10,
389,9.999999999908528e-05,1.399999999999561e-02,1.556931830513798e-19,-4.445798330026860e-19,4.111975017640887e-10,6.147058184068794e-10,6.932612267140038e-11,2.462520661464235e-10,
390,-1.016466641759473e-15,1.399999999999519e-02,1.231751612331223e-19,-1.249344194125636e-18,-1.203567536775893e-10,-1.193976470711631e-10,-1.275963769548446e-10,2.551945562379686e-10,
391,-1.000000000009148e-04,1.399999999999477e-02,4.745950871849382e-19,6.572038636771881e-19,1.595242734963536e-10,2.634057944678681e-10,-6.951221625286684e-11,1.735487344606596e-10,
392,-2.000000000008131e-04,1.399999999999435e-02,2.062459001097988e-19,-2.926225353896130e-19,-2.099125672511311e-10,-3.165450474241846e-10,-6.168247880197183e-11,1.630625603640501e-10,
393,-3.000000000006098e-04,1.399999999999393e-02,5.023507050556600e-19,2.319161017434972e-19,-2.327850725052204e-10,-3.774904919099952e-10,-1.298125705881396e-10,2.972286532888689e-10,
394,-4.000000000003050e-04,1.399999999999351e-02,1.592885699484454e-19,-9.294594237176803e-20,1.373306807560825e-10,1.831605106751406e-10,-5.962333204479613e-11,1.277503041362558e-10,
395,3.999999999997017e-04,1.386666666666332e-02,-1.485350238774244e-19,-8.913434205272618e-19,3.917801291259591e-10,6.765026544518758e-10,-1.217739277930289e-11,2.857622648419012e-10,
396,2.999999999994036e-04,1.386666666666288e-02,-4.985697121868745e-19,9.455340922039316e-19,-1.730128671073115e-11,3.640411153202592e-11,6.829798214955491e-12,5.541529008352452e-11,
397,1.999999999992048e-04,1.386666666666243e-02,1.392599999130905e-19,1.375535906260475e-18,-3.107852022976485e-10,-3.593585178592397e-10,1.426880029218282e-10,2.894802785958389e-10,
398,9.999999999910558e-05,1.386666666666199e-02,1.472537456149725e-19,-1.286861522470730e-18,2.569141703013117e-10,3.880726941192745e-10,1.236031851342174e-10,2.798455786168536e-10,
399,-9.939694466803983e-16,1.386666666666154e-02,1.562882233835901e-19,-8.472146910983095e-19,1.449598570980778e-10,1.918244996715668e-10,1.106176048160824e-10,2.261444509700135e-10,
400,-1.000000000008945e-04,1.386666666666109e-02,2.872690533677238e-20,-7.174645154975470e-19,-2.537227215100068e-10,-3.294777739560492e-10,5.655887973803360e-11,1.361413070305557e-10,
401,-2.000000000007951e-04,1.386666666666065e-02,4.367563713675336e-19,7.976158175610652e-19,2.551563292395072e-10,3.705897588856825e-10,5.059625611297259e-11,1.535083099069121e-10,
402,-3.000000000005963e-04,1.386666666666020e-02,-2.938865927453252e-20,-6.369751133994474e-19,1.630566753103116e-10,1.992419238323242e-10,5.027987754544306e-11,1.068720569397764e-10,
403,-4.000000000002982e-04,1.386666666665975e-02,1.511021309033882e-19,-5.045439976627351e-19,-2.264480633885127e-10,-3.740959088016354e-10,7.882874821412025e-11,2.159994732288902e-10,
404,3.999999999997085e-04,1.373333333332979e-02,-3.765125567260007e-19,8.135008897849184e-19,9.839718048770282e-11,1.040762673861052e-10,-4.591133139521599e-11,9.199811644770227e-11,
405,2.999999999994172e-04,1.373333333332932e-02,-7.838264473614931e-19,-3.917703950523932e-20,8.392532259623451e-11,1.354413502424720e-10,-1.779164040146475e-11,6.261047018788505e-11,
406,1.999999999992229e-04,1.373333333332883e-02,-1.784248134757191e-19,-1.097516974933751e-18,7.880370700554603e-11,2.854400827083897e-10,6.124218203851988e-11,2.402103478349000e-10,
407,9.999999999912593e-05,1.373333333332836e-02,1.533333239949429e-19,7.933708320829825e-19,1.493432110871087e-10,1.982513598399212e-10,-1.299263748420647e-10,2.644153144824067e-10,
408,-9.713367263297634e-16,1.373333333332788e-02,-3.363254813418320e-19,-3.101155146974173e-19,9.452817180946834e-10,1.374101536947919e-09,-1.177450486116829e-10,4.892259426191461e-10,
409,-1.000000000008742e-04,1.373333333332741e-02,-1.229541017402548e-19,-1.167931136007434e-18,-3.392510606957966e-10,-4.597533160603536e-10,-1.161491372168987e-10,2.616931062387100e-10,
410,-2.000000000007770e-04,1.373333333332693e-02,-3.062432822868439e-20,9.050591542539250e-19,-3.551808523346013e-10,-5.790112185457315e-10,-9.325119472944371e-11,2.913471711070542e-10,
411,-3.000000000005827e-04,1.373333333332646e-02,-3.573687187015144e-19,5.340243056209570e-21,-1.257742153999744e-10,-2.016062509676875e-10,1.971021120969956e-11,8.546617647974417e-11,
412,-4.000000000002915e-04,1.373333333332598e-02,-5.491209461031894e-20,8.688435167803652e-19,4.050582887079844e-10,6.410683260391305e-10,-1.368955191530538e-11,2.375928303792359e-10,
413,3.999999999997154e-04,1.359999999999624e-02,-6.948194912051957e-19,-2.590215791898490e-19,-4.939433682478360e-10,-6.801957911471451e-10,-1.264353405721333e-11,1.879611684622300e-10,
414,2.999999999994306e-04,1.359999999999574e-02,-1.388530808199507e-19,5.750782263839065e-19,3.534804344804679e-10,6.351113336585196e-10,3.201871668194452e-11,2.888195911701151e-10,
415,1.999999999992410e-04,1.359999999999524e-02,-1.678561650741584e-19,-7.682559664578570e-20,-4.451513990986068e-10,-5.277721053843452e-10,-1.512266414613582e-11,8.798273120710409e-11,
416,9.999999999914618e-05,1.359999999999473e-02,5.913065330387930e-19,-4.296468206928447e-20,-4.446522092274796e-10,-6.716597259184395e-10,3.053076482393603e-11,2.350764195684766e-10,
417,-9.487853211420649e-16,1.359999999999423e-02,-1.728884465122458e-19,4.569697604832452e-19,4.064278578997389e-10,5.020574922640169e-10,3.289196979371643e-11,1.160713301219925e-10,
418,-1.000000000008539e-04,1.359999999999373e-02,4.049459375001544e-20,9.407195661573833e-19,-4.765405424358747e-10,-7.231717690358419e-10,1.784788412964163e-11,2.492010228827818e-10,
419,-2.000000000007589e-04,1.359999999999322e-02,-2.561500245678909e-19,-3.597035089611832e-19,2.890141790370201e-10,4.161485080749897e-10,8.849512765944324e-11,2.179189943483113e-10,
420,-3.000000000005691e-04,1.359999999999272e-02,-3.362644077172841e-20,-2.249860046609524e-19,-2.332527488758129e-10,-3.027191020499391e-10,-8.186292309703475e-11,1.778531049357208e-10,
421,-4.000000000002847e-04,1.359999999999222e-02,5.478463233266785e-20,2.938940370605162e-20,1.590852704026436e-10,3.165178606433589e-10,1.123175578933563e-10,2.743099628420571e-10,
422,3.999999999997221e-04,1.346666666666270e-02,-1.168285498164676e-19,-9.725226069246001e-19,5.758798237633385e-10,7.668898602865547e-10,-4.398208920896472e-11,2.102915374838980e-10,
423,2.999999999994443e-04,1.346666666666217e-02,-4.004929864687931e-19,-5.647278760026207e-19,-3.504657914542775e-10,-4.902906489936309e-10,5.598575016749771e-11,1.791329329664715e-10,
424,1.999999999992589e-04,1.346666666666164e-02,8.873615726235048e-20,-4.109831042055332e-19,-1.042125790562836e-10,7.251451223494634e-11,-3.254818130687966e-11,1.883348114975051e-10,
425,9.999999999916659e-05,1.346666666666111e-02,8.770937086333487e-19,-4.915687075506799e-19,2.575047387988317e-11,1.412593234977610e-10,-1.961092940621916e-11,1.219862637707556e-10,
426,-9.261526007914300e-16,1.346666666666058e-02,5.908151073497166e-19,1.468954007388170e-18,1.462319483713357e-10,1.260439424021421e-10,-9.942310470299104e-13,2.028569857095659e-11,
427,-1.000000000008336e-04,1.346666666666004e-02,4.349418556047832e-19,1.154054591012615e-19,7.229634497701660e-10,1.110069354301621e-09,6.538836320906862e-12,3.873267442932931e-10,
428,-2.000000000007408e-04,1.346666666665951e-02,7.602943664691299e-19,2.781682508302702e-19,-7.224801213605176e-10,-1.089883693057413e-09,9.643878355451963e-12,3.679095025336727e-10,
429,-3.000000000005557e-04,1.346666666665898e-02,4.588517258185382e-19,9.843208006572607e-20,4.209283890680770e-10,5.427341930918530e-10,-4.786987136654408e-11,1.549282163857713e-10,
430,-4.000000000002778e-04,1.346666666665845e-02,3.782972313479363e-19,-2.254955861872442e-18,2.056538574220451e-10,3.270570912642813e-10,-1.141472251855073e-10,2.585674017689707e-10,
431,3.999999999997288e-04,1.333333333332916e-02,-4.841802389622747e-19,1.235268512886044e-18,-5.923263831925321e-10,-8.432380914920674e-10,-3.029470578835052e-11,2.581235404936984e-10,
432,2.999999999994580e-04,1.333333333332860e-02,-1.793369483494178e-19,6.943352599834629e-19,2.105487942528544e-10,4.306685991573258e-10,-2.999896950268278e-11,2.281501286347964e-10,
433,1.999999999992771e-04,1.333333333332804e-02,1.564224180036895e-19,-2.227924777272955e-19,7.346101644833677e-11,1.830048279739869e-10,1.025890012856865e-10,2.325894653305379e-10,
434,9.999999999918687e-05,1.333333333332748e-02,2.316453560303558e-19,-1.220144183841665e-18,3.669962354115237e-10,5.199925284830530e-10,1.730359310872161e-12,1.530354281433163e-10,
435,-9.035740905494194e-16,1.333333333332692e-02,4.282453023450571e-21,6.251806846302684e-19,-4.909132826049748e-10,-7.172997288345884e-10,-7.666935239793777e-11,2.734292987683479e-10,
436,-1.000000000008132e-04,1.333333333332636e-02,3.001758488451288e-19,6.438471219411812e-19,1.063143666721870e-10,1.146843587631901e-10,8.094609144596608e-11,1.621084070895716e-10,
437,-2.000000000007228e-04,1.333333333332580e-02,-1.873508803379034e-19,4.108258744404085e-19,3.681460272497804e-10,5.730308911446233e-10,-3.193386921377884e-11,2.146087031437898e-10,
438,-3.000000000005421e-04,1.333333333332525e-02,3.553793994844362e-19,7.337508949722124e-19,-9.939569299846164e-12,1.200099668998244e-10,3.863801686689286e-11,1.511901694824590e-10,
439,-4.000000000002710e-04,1.333333333332468e-02,4.903481038564070e-19,1.112347569393472e-18,-5.774047895799047e-11,-9.885196838895900e-11,1.395593806029774e-11,4.969132109135464e-11,
440,3.999999999997356e-04,1.319999999999562e-02,-7.404394081237380e-19,-5.295063238305878e-19,1.049531853828945e-10,3.135688193048961e-10,7.144337137952753e-11,2.528578730689851e-10,
441,2.999999999994714e-04,1.319999999999503e-02,1.465682293602886e-19,2.517410201684854e-19,-4.206060049620773e-10,-4.474727546455969e-10,-1.415770462111408e-11,3.903312233362493e-11,
442,1.999999999992951e-04,1.319999999999444e-02,2.246437716303652e-19,3.865153484432196e-19,4.660239419143162e-10,7.407620004718452e-10,-3.915848310981475e-11,2.856826001313466e-10,
443,9.999999999920722e-05,1.319999999999386e-02,3.709450593141182e-19,1.074383018164860e-19,-4.179180933009363e-10,-6.254565151327440e-10,3.281279487951380e-12,2.076421530343721e-10,
444,-8.809413701987845e-16,1.319999999999327e-02,2.187834970370097e-19,1.120424977462775e-18,4.023435529962422e-10,6.152115674935270e-10,-7.018267549440957e-12,2.133302976925649e-10,
445,-1.000000000007929e-04,1.319999999999268e-02,4.396208922461271e-19,-2.249684207338094e-19,-2.970735311861679e-10,-5.170191611267839e-10,2.320130018605860e-10,5.135135950093391e-10,
446,-2.000000000007047e-04,1.319999999999210e-02,-1.810560857616556e-19,7.585109409236968e-19,-4.188582121460132e-11,-1.383872652809979e-10,6.120623316380679e-11,1.558760424802638e-10,
447,-3.000000000005285e-04,1.319999999999151e-02,-1.364814272547778e-20,4.028839292764076e-19,-1.209605322959726e-10,-1.313260067978092e-10,-1.038239598605294e-10,2.079064732665424e-10,
448,-4.000000000002643e-04,1.319999999999092e-02,7.427253678534119e-20,1.047389723648530e-18,2.768108868202321e-10,4.130385224328668e-10,-7.381979513956871e-11,2.008865782535019e-10,
449,3.999999999997424e-04,1.306666666666207e-02,-3.520936947558962e-19,1.086677108232913e-18,5.043155141943499e-11,1.448821485160198e-11,-9.507601481694959e-11,1.935192957240177e-10,
450,2.999999999994849e-04,1.306666666666146e-02,-3.279114613396728e-19,2.167417854384716e-19,-1.772220105572180e-10,-2.328068443757030e-10,3.855729696572096e-12,5.611720196696108e-11,
451,1.999999999993132e-04,1.306666666666085e-02,-1.407884518717162e-19,2.128737842794108e-19,-1.354692419443859e-10,-1.449905890236194e-10,-1.793123681425623e-11,3.710489273612012e-11,
452,9.999999999922752e-05,1.306666666666023e-02,4.022797663155382e-21,1.133888909982851e-18,8.558370374480772e-11,1.889572842125270e-10,-8.407948936817803e-11,1.973918419498898e-10,
453,-8.584441751197103e-16,1.306666666665961e-02,1.708588803762534e-19,-5.030348414033896e-19,5.640612171930715e-11,6.915691365200104e-11,-2.639923185163227e-12,1.380070551113604e-11,
454,-1.000000000007725e-04,1.306666666665900e-02,-6.771768829332316e-20,1.559982052743943e-18,3.503810486972995e-10,4.862050464771146e-10,-6.394558671011988e-11,1.865591343560990e-10,
455,-2.000000000006866e-04,1.306666666665838e-02,-8.391663483540475e-20,-2.718852560175982e-20,8.952443284150489e-11,1.930973725198119e-10,-1.195357083912575e-11,1.062963087638992e-10,
456,-3.000000000005150e-04,1.306666666665777e-02,2.544864149589760e-19,-8.885106920452611e-19,-2.997269358153280e-10,-4.986496784955068e-10,1.141341310528902e-12,1.989358393938938e-10,
457,-4.000000000002576e-04,1.306666666665715e-02,-3.988352867862818e-19,8.031137297742823e-19,1.890975804115499e-10,2.020793983631838e-10,7.754345433793676e-12,2.022491260193121e-11,
458,3.999999999997493e-04,1.293333333332854e-02,-4.333844652412376e-19,1.326669900797229e-18,5.728647263169731e-11,1.937708906625937e-10,-7.069006821835190e-11,1.965104051802181e-10,
459,2.999999999994984e-04,1.293333333332789e-02,1.182071694405929e-19,9.181156716961377e-19,-5.974101354895565e-11,-4.471319138520969e-11,6.763757216815551e-11,1.361073110240407e-10,
460,1.999999999993312e-04,1.293333333332725e-02,-1.880884907375310e-19,2.300326291273110e-19,-5.100410261360399e-11,-2.034050625584461e-12,-2.590587050473608e-12,4.924338084223768e-11,
461,9.999999999924785e-05,1.293333333332660e-02,5.190823557767042e-19,6.931187663412360e-19,-1.361833102967724e-11,4.037116918063994e-11,1.433533986991100e-11,6.112997635942025e-11,
462,-8.357843497147632e-16,1.293333333332596e-02,1.714585049173743e-19,7.218677026560485e-20,-2.951727425847414e-10,-6.039101680979275e-10,2.134029848231541e-11,3.116735973254189e-10,
463,-1.000000000007522e-04,1.293333333332532e-02,-3.564515831200436e-19,5.341856238997895e-20,-2.464055388374559e-10,-4.447993507183350e-10,-2.322074080672813e-11,2.037570018602517e-10,
464,-2.000000000006686e-04,1.293333333332467e-02,-2.307889685194646e-19,7.018689256887935e-19,2.518840455661585e-10,4.469665867141559e-10,1.626451310450819e-11,1.977759727744171e-10,
465,-3.000000000005014e-04,1.293333333332403e-02,1.088519779360990e-20,-2.842589357739354e-19,-2.626120355387318e-10,-3.833689380189796e-10,-2.549068390151575e-11,1.310775700098686e-10,
466,-4.000000000002508e-04,1.293333333332338e-02,-1.864523523700010e-19,-1.319813323811624e-18,2.046952463142979e-10,3.417608895181265e-10,-9.861180094984208e-12,1.384772979168141e-10,
467,3.999999999997559e-04,1.279999999999499e-02,-1.844773563031206e-19,-1.101901973968030e-18,-1.237598779962185e-10,-2.423189453235770e-10,1.758717152031746e-11,1.236668381332417e-10,
468,2.999999999995121e-04,1.279999999999432e-02,-2.146578919433758e-19,5.546353208676454e-20,-6.808383939868982e-13,1.424934953627827e-10,-1.432188507074938e-11,1.460114906937597e-10,
469,1.999999999993494e-04,1.279999999999365e-02,5.846834206721295e-19,1.180720250397965e-18,-2.609633399056455e-10,-3.219114918466211e-10,-1.717944444745634e-11,6.996578071538402e-11,
470,9.999999999926821e-05,1.279999999999298e-02,1.081694316961594e-19,-9.932795423372742e-20,1.404469956519925e-10,1.429433077378388e-10,1.994281954208632e-11,3.996368075118740e-11,
471,-8.131787344184405e-16,1.279999999999231e-02,2.376958905656136e-19,1.089248513532621e-18,-3.453650128512467e-10,-5.371615441670038e-10,-4.671312967761418e-11,2.133409837838634e-10,
472,-1.000000000007319e-04,1.279999999999163e-02,-6.980964706415063e-21,1.000893519963731e-18,8.995197784737797e-11,6.289084447948474e-11,8.487796726281374e-11,1.718993375374787e-10,
473,-2.000000000006505e-04,1.279999999999096e-02,-1.338327493152924e-19,-5.931124805099128e-19,4.406373372327192e-11,1.069763500732398e-10,4.819135446979676e-11,1.150983226573378e-10,
474,-3.000000000004879e-04,1.279999999999029e-02,2.306648000372741e-19,-3.908238666737091e-19,-1.954918033135592e-10,-2.752386788101678e-10,3.940508964874704e-11,1.121187250746937e-10,
475,-4.000000000002440e-04,1.279999999998962e-02,1.858199531851277e-20,1.514500368385067e-18,-3.349804178195555e-11,-1.207878082529861e-11,-5.268332074984176e-11,1.075216902808554e-10,
476,3.999999999997626e-04,1.266666666666145e-02,8.878965456625602e-20,1.083957990133598e-18,-4.545642851309077e-11,-1.860489258520617e-10,-4.051122790000913e-11,1.622679532497851e-10,
477,2.999999999995256e-04,1.266666666666075e-02,-6.845001338460237e-19,4.413571218636788e-19,1.838683825421005e-10,2.432955531953236e-10,-1.191427662347532e-10,2.455841680486010e-10,
478,1.999999999993675e-04,1.266666666666005e-02,-1.140233620522470e-19,-1.052906666894076e-18,-1.684754907602940e-10,-1.314498132682189e-10,-2.176295462657986e-11,5.714372730284094e-11,
479,9.999999999928856e-05,1.266666666665935e-02,-6.105139147387736e-20,1.251307356362457e-18,4.000104532851055e-10,5.883911251207043e-10,-2.730642450619461e-11,1.961373008850729e-10,
480,-7.906002241764298e-16,1.266666666665865e-02,-1.584356573818520e-19,-4.321100470023142e-19,4.829334116102695e-10,7.077473637534778e-10,-2.033726688820430e-11,2.284638500423577e-10,
481,-1.000000000007115e-04,1.266666666665795e-02,-1.535616473499478e-19,-3.931842596438061e-19,-5.367807869346277e-11,-4.005526763626485e-11,-7.822935303525636e-11,1.570506532503422e-10,
482,-2.000000000006323e-04,1.266666666665726e-02,5.635761354512791e-20,1.523997075473713e-19,-6.404106132432531e-10,-8.979392386758216e-10,8.187829162722418e-11,3.051838977999318e-10,
483,-3.000000000004743e-04,1.266666666665656e-02,1.440331131217248e-19,-8.526193463888926e-19,7.613642290969493e-11,1.386858188678597e-10,-4.296022627327032e-11,1.062767665133524e-10,
484,-4.000000000002372e-04,1.266666666665586e-02,1.206754937811779e-19,1.493254601479966e-18,-8.737917813854390e-11,-1.738427934116252e-10,1.075585905418626e-10,2.318433918909479e-10,
485,3.999999999997695e-04,1.253333333332791e-02,3.990762584617139e-19,-5.384636269709906e-19,-6.772899308194497e-10,-9.320883012696802e-10,9.093271328614279e-11,3.130451133086289e-10,
486,2.999999999995392e-04,1.253333333332718e-02,4.037754115311764e-19,-3.501396602515376e-19,4.435366944594467e-11,7.808799884934870e-11,2.498909181499602e-11,6.029779282237927e-11,
487,1.999999999993854e-04,1.253333333332645e-02,4.366963303989807e-19,-1.688419917936214e-20,1.472774375386155e-10,1.954352383347681e-10,1.489455500475414e-11,5.662653841336681e-11,
488,9.999999999930887e-05,1.253333333332573e-02,2.066707600243290e-19,2.395031416182071e-19,1.622428404291146e-11,-8.347423314752517e-11,1.062597486165530e-10,2.347431171178059e-10,
489,-7.680488189887313e-16,1.253333333332500e-02,-1.260828460153330e-19,5.755860638052582e-19,-3.580184035193778e-10,-5.593641736162644e-10,-2.667885953659815e-11,2.082958600659228e-10,
490,-1.000000000006912e-04,1.253333333332427e-02,1.335672456908245e-19,1.147674905909586e-18,2.516819789003978e-10,3.773194432460625e-10,-2.519358986227190e-11,1.353648415497970e-10,
491,-2.000000000006143e-04,1.253333333332354e-02,-1.270093409220307e-19,-7.549757577438898e-19,2.945225033478027e-10,4.875822425356668e-10,-7.883033309499017e-11,2.492567924024429e-10,
492,-3.000000000004608e-04,1.253333333332282e-02,3.162805944381070e-19,-1.265804668630379e-19,3.730501335580547e-11,8.983962946481287e-11,8.338929499680532e-11,1.748570386629536e-10,
493,-4.000000000002305e-04,1.253333333332209e-02,3.674913969565624e-20,1.998256422056621e-20,-1.486958531525488e-11,-1.160429092512157e-10,1.434198394522980e-11,1.051608838408644e-10,
494,3.999999999997764e-04,1.239999999999437e-02,-2.602744563537594e-19,-5.348278032819088e-19,-2.268431600110534e-10,-4.660953773571840e-10,-6.764860114154745e-11,2.748580660098458e-10,
495,2.999999999995527e-04,1.239999999999361e-02,-3.173990540370031e-19,-1.479115698669985e-19,3.149469297069307e-10,4.934817350547205e-10,-5.846233500287807e-11,2.134152177716673e-10,
496,1.999999999994036e-04,1.239999999999286e-02,-2.267774870569306e-19,-5.266931198641443e-19,-4.219034337898876e-10,-6.280389798177223e-10,-4.398703154306204e-11,2.241234015270936e-10,
497,9.999999999932922e-05,1.239999999999210e-02,-3.323846900377347e-19,3.105206837442083e-19,3.188042136596797e-10,4.407563009454225e-10,-5.301773697577268e-11,1.616039397090255e-10,
498,-7.454160986380964e-16,1.239999999999135e-02,-4.308652149785973e-19,-7.707620328737424e-19,-3.661385145985196e-10,-5.044192652520592e-10,-1.893823464844894e-11,1.433743105570356e-10,
499,-1.000000000006709e-04,1.239999999999059e-02,-1.410322946568530e-19,8.153514941335829e-19,4.775673860325947e-10,7.894439659634485e-10,-7.626402269497706e-11,3.471769084196790e-10,
500,-2.000000000005963e-04,1.239999999998984e-02,-1.603196036955602e-20,-2.838880705497219e-19,5.463583157231436e-11,6.388396261923191e-11,-3.588177433194516e-11,7.235699582414623e-11,
501,-3.000000000004473e-04,1.239999999998908e-02,-2.157347196498193e-19,-3.348268361377746e-20,1.468227824058227e-10,1.193195196442643e-10,-2.063203694472654e-11,4.958985033739838e-11,
502,-4.000000000002237e-04,1.239999999998832e-02,-4.831921496792651e-19,-6.481323251474527e-19,1.335884526410712e-10,1.464574267114498e-10,-3.152082304796923e-11,6.434174100931396e-11,
503,3.999999999997831e-04,1.226666666666083e-02,-2.641735257174084e-19,8.446390294041798e-19,9.757589258686422e-11,3.369766051514424e-10,5.636429443616115e-12,2.396659728119935e-10,
504,2.999999999995661e-04,1.226666666666004e-02,3.304006888909444e-19,1.284688509039252e-18,1.691868516574284e-10,3.976553722811083e-10,-2.075868363877798e-11,2.322101563274792e-10,
505,1.999999999994216e-04,1.226666666665926e-02,5.470032315250953e-19,-9.269961035403574e-20,6.535264953333448e-11,6.311710439459262e-11,3.580055636466626e-11,7.163600356068124e-11,
506,9.999999999934952e-05,1.226666666665847e-02,1.571900692242087e-19,-4.849600245948567e-19,-2.847846379835175e-10,-5.468796963094797e-10,4.320488588905863e-11,2.759718613511817e-10,
507,-7.228375883960858e-16,1.226666666665769e-02,-1.361624987535616e-19,-1.560309727363101e-19,1.880841207828267e-10,1.630004730617387e-10,1.482767921895745e-10,2.976125296272263e-10,
508,-1.000000000006505e-04,1.226666666665691e-02,-4.576543994286559e-19,5.529543325122844e-19,-2.739895598271440e-10,-5.048941291053527e-10,3.605099507982430e-11,2.419000146724617e-10,
509,-2.000000000005781e-04,1.226666666665612e-02,-6.561996490221845e-19,1.916228516894151e-19,8.302015016733619e-11,1.245846549272109e-10,2.014741229790553e-11,5.789024913697321e-11,
510,-3.000000000004337e-04,1.226666666665534e-02,-4.587743564200241e-19,-8.690959657187528e-20,-9.367264351428352e-11,-5.356885661083557e-11,-3.433026797362764e-11,7.951467110264307e-11,
511,-4.000000000002168e-04,1.226666666665456e-02,-2.464575194524053e-19,1.060312958079349e-18,-1.658067968223336e-11,-5.307237419488785e-11,1.135481028249090e-10,2.300094136963731e-10,
512,3.999999999997898e-04,1.213333333332728e-02,1.298803676907023e-19,-1.214579134024092e-18,-4.209610468738110e-10,-6.789264634436130e-10,-7.252610309125804e-12,2.583729040964156e-10,
513,2.999999999995798e-04,1.213333333332647e-02,1.269180577489205e-19,2.004330481858452e-20,2.596497635400716e-10,4.907229601033214e-10,3.562323080254481e-11,2.418075277182326e-10,
514,1.999999999994397e-04,1.213333333332566e-02,6.817889294901150e-19,4.767302460382029e-19,2.522237215151104e-10,3.552448908723537e-10,1.257833236280210e-10,2.718439613958340e-10,
515,9.999999999936980e-05,1.213333333332485e-02,9.192918039668213e-21,-1.089878660381019e-18,-1.925769829308126e-10,-4.236759358933971e-10,9.856051930449818e-11,3.037489587186962e-10,
516,-7.002861832083873e-16,1.213333333332403e-02,-3.255382741066111e-20,-9.196836687219758e-19,1.135913413260951e-10,2.408328899125959e-10,-4.571581309869150e-12,1.275696245560904e-10,
517,-1.000000000006302e-04,1.213333333332323e-02,4.136452876125305e-19,1.425456812705205e-19,-9.914716571415670e-11,-1.134080529993617e-10,-5.548053977418968e-11,1.118737416943900e-10,
518,-2.000000000005602e-04,1.213333333332241e-02,1.193886144291926e-19,5.439928221945153e-19,-3.011356453744104e-10,-5.033417670855741e-10,-1.083062125678133e-10,2.963245828152086e-10,
519,-3.000000000004202e-04,1.213333333332160e-02,1.439254928562850e-19,-4.657637636206848e-19,6.018363844129627e-11,8.272159658045726e-11,4.833236654750644e-11,9.925739358562994e-11,
520,-4.000000000002102e-04,1.213333333332080e-02,6.266705252478825e-20,2.391093381501968e-19,-2.544728600442869e-10,-3.964950572378461e-10,1.343204027765423e-11,1.445405940203938e-10,
521,3.999999999997967e-04,1.199999999999374e-02,-4.009432266255877e-20,3.255911530362347e-19,-8.013798759031988e-11,-6.484890298078783e-11,-8.233995031018639e-11,1.653881065147470e-10,
522,2.999999999995932e-04,1.199999999999290e-02,-2.228945074219593e-19,-3.924268946758189e-19,-1.016355853962196e-10,-1.934622327154927e-10,-2.901566964690023e-11,1.086267439359679e-10,
523,1.999999999994578e-04,1.199999999999206e-02,-3.039966315624527e-19,-1.257597856990603e-18,2.770767415227450e-11,1.155095545389597e-10,4.866855346631450e-11,1.310865461649357e-10,
524,9.999999999939018e-05,1.199999999999122e-02,1.616775974291146e-19,1.131881622537303e-18,-4.897121873904394e-10,-7.554832999910599e-10,-1.416770259213769e-10,3.884891285334478e-10,
525,-6.776805679120645e-16,1.199999999999038e-02,-4.139468246562961e-19,-7.353774370360490e-20,1.800690172957254e-10,2.173599417624303e-10,-4.902403542070334e-12,3.855836212209626e-11,
526,-1.000000000006099e-04,1.199999999998954e-02,-1.250542310255977e-19,-5.648269400245164e-19,1.568610711226289e-11,1.071553677948467e-10,-9.493157725882533e-11,2.107478187151928e-10,
527,-2.000000000005420e-04,1.199999999998870e-02,3.253770853136889e-20,1.096793274458582e-18,-4.297272032386555e-10,-5.618501719194817e-10,-8.856479240942905e-11,2.209782085888462e-10,
528,-3.000000000004065e-04,1.199999999998786e-02,3.458999548100242e-19,9.596498244373885e-19,3.883822664098561e-10,5.297408403984663e-10,-9.555532037082069e-11,2.377089048495535e-10,
529,-4.000000000002033e-04,1.199999999998702e-02,-2.862558595611672e-19,-8.132441779393193e-19,3.840238105912409e-10,4.658963042228863e-10,5.503340192931873e-11,1.371780103555946e-10,
530,3.999999999998034e-04,1.186666666666056e-02,-1.719402578257936e-19,-6.812816752783207e-19,4.196444414014919e-11,7.897553724443347e-11,-5.903811720819923e-12,3.884895087532689e-11,
531,2.999999999996069e-04,1.186666666665969e-02,5.375781017866790e-19,-5.529217338714271e-19,-4.889846789555414e-10,-7.102693555847455e-10,1.429528259168513e-10,3.615369273827305e-10,
532,1.999999999994758e-04,1.186666666665883e-02,-1.378834792363848e-20,2.086567079937461e-19,3.976054226324328e-10,4.100463561982477e-10,-1.146411113682002e-11,2.608601549908393e-11,
533,9.999999999941051e-05,1.186666666665796e-02,-4.509211180808157e-19,-4.840249275392622e-19,-2.982122837813644e-10,-3.349046912321921e-10,-1.547692191546302e-11,4.800492904324419e-11,
534,-6.551562677786782e-16,1.186666666665709e-02,5.998085111564308e-19,-1.039485475030461e-19,3.044326739103295e-11,2.557720614444353e-10,1.610026667282375e-11,2.276179689244783e-10,
535,-1.000000000005896e-04,1.186666666665622e-02,6.524321189996460e-19,-2.198471716234984e-20,2.468032662612517e-10,2.293654379186046e-10,7.601963378183689e-11,1.530359981788794e-10,
536,-2.000000000005239e-04,1.186666666665536e-02,-1.512852581834994e-19,6.305111922951040e-19,1.589345071131406e-10,5.447759472380469e-11,1.091982520333968e-10,2.420914693550981e-10,
537,-3.000000000003931e-04,1.186666666665449e-02,-3.646109766028849e-19,3.911422861657662e-19,1.767610261706228e-10,2.849094354512928e-10,5.848581306147810e-12,1.087791434196731e-10,
538,-4.000000000001965e-04,1.186666666665362e-02,-1.174750272482793e-19,5.318545636304096e-19,2.378741835979992e-10,3.803026494256302e-10,-1.345204846957465e-12,1.424538738761912e-10,
539,3.999999999998102e-04,1.173333333332738e-02,5.717852028874821e-20,1.003827723298929e-18,-2.806702294216544e-10,-4.469609062668734e-10,1.208096259683329e-10,2.933128911454031e-10,
540,2.999999999996204e-04,1.173333333332648e-02,-1.658204572562166e-19,-1.798351169378487e-18,3.738526431198694e-10,5.981718854194802e-10,1.320423637605087e-11,2.258683906591845e-10,
541,1.999999999994939e-04,1.173333333332559e-02,2.610567936744206e-19,-4.860216634701633e-22,1.321301561635160e-10,3.744984789831666e-10,-4.232691614909282e-11,2.567268494512791e-10,
542,9.999999999943081e-05,1.173333333332469e-02,7.952879385356420e-19,-1.862478225359015e-18,3.997229745165193e-11,3.098173039798380e-11,1.021566901759804e-11,2.232195936415424e-11,
543,-6.325235474280433e-16,1.173333333332380e-02,1.131755942284580e-19,-2.376223700570852e-19,7.783079758632135e-11,2.432647501194556e-11,2.943514742537435e-12,5.382722034715336e-11,
544,-1.000000000005692e-04,1.173333333332290e-02,2.903929859383733e-19,-5.488590139796627e-19,-4.925394453319072e-11,-5.909582649216100e-11,-4.736334419642565e-11,9.523659031260336e-11,
545,-2.000000000005060e-04,1.173333333332201e-02,2.809192657254593e-19,-7.499786445813389e-20,1.333282578465623e-10,1.279442355048717e-10,3.672601861490061e-11,7.364909687011734e-11,
546,-3.000000000003794e-04,1.173333333332111e-02,-8.460555159512898e-20,-1.042638790937805e-18,5.173218320109860e-11,8.675995690346881e-11,-5.496628944719629e-11,1.153781471203118e-10,
547,-4.000000000001898e-04,1.173333333332022e-02,4.558370372813836e-19,-6.256286149407836e-19,-4.115068646322913e-10,-6.785063919967255e-10,-7.122524272373270e-11,3.026233441376421e-10,
548,3.999999999998169e-04,1.159999999999420e-02,-4.657157924623468e-19,-7.145555035280152e-19,3.938253517630951e-10,6.707124401300304e-10,-1.678989550372875e-11,2.789158691584680e-10,
549,2.999999999996341e-04,1.159999999999327e-02,-2.383142675344383e-19,-5.281979471440410e-19,-1.641469852922410e-10,-1.123911809943927e-10,-1.096641289659005e-11,5.621131670572349e-11,
550,1.999999999995121e-04,1.159999999999235e-02,1.636275730535784e-19,-1.215497829254837e-18,-3.418780040045336e-10,-4.877286585661212e-10,9.039999335175275e-11,2.322951756451936e-10,
551,9.999999999945114e-05,1.159999999999143e-02,-3.135243244443826e-21,-3.558957644726522e-19,3.118248577098254e-10,4.127751246845342e-10,-3.447071046615803e-11,1.222451468256788e-10,
552,-6.099450371860327e-16,1.159999999999051e-02,-1.452924775174692e-19,-1.821164082964051e-19,-5.279320586906426e-10,-8.058494030305817e-10,1.062181204915653e-12,2.779254633901192e-10,
553,-1.000000000005489e-04,1.159999999998958e-02,-4.382798521253399e-20,4.929357786789524e-19,2.541828476676810e-10,4.276153879163817e-10,5.237836684214631e-11,2.026149532224090e-10,
554,-2.000000000004878e-04,1.159999999998866e-02,5.015032128042461e-20,-1.226818108191499e-18,-3.685530774588620e-10,-5.431600982938665e-10,-2.800227640241552e-11,1.833688132146380e-10,
555,-3.000000000003659e-04,1.159999999998774e-02,2.426677899743348e-21,-4.350311615304500e-19,-1.551585535411538e-10,-3.235727132188505e-10,-3.989944189696889e-11,1.863630624203818e-10,
556,-4.000000000001830e-04,1.159999999998682e-02,-4.642672866940280e-19,2.624403517302250e-19,6.692150032851348e-10,9.990408410925907e-10,2.874456975367550e-11,3.347985729460115e-10,
557,3.999999999998237e-04,1.146666666666102e-02,-1.357078105271454e-20,6.773054793573698e-19,-3.887331143703630e-10,-5.977008733265471e-10,1.602542033101276e-10,3.826135948936272e-10,
558,2.999999999996474e-04,1.146666666666007e-02,-1.505706020499062e-19,-9.360456718662774e-19,3.264444853592898e-10,4.789888307531970e-10,-5.376073336862628e-11,1.866296951746580e-10,
559,1.999999999995300e-04,1.146666666665912e-02,3.776303143037275e-20,2.707839115158963e-19,1.867208041909699e-10,3.721096725221427e-10,-7.144337137954498e-12,1.859386961169620e-10,
560,9.999999999947147e-05,1.146666666665817e-02,3.148106960083138e-19,-6.586157640091122e-20,1.978330048508458e-10,3.404236920558161e-10,3.489770949723619e-11,1.587561167016869e-10,
561,-5.873123168353978e-16,1.146666666665721e-02,2.972045711789241e-19,-2.192249949566831e-19,2.506052623088871e-10,4.225096337871441e-10,7.574962881628198e-11,2.291356323153441e-10,
562,-1.000000000005286e-04,1.146666666665627e-02,5.408078441807161e-19,-1.437304632093938e-20,5.969512508302842e-11,1.561798494590680e-10,-1.092624532028030e-11,9.892842556675062e-11,
563,-2.000000000004697e-04,1.146666666665531e-02,6.400755049917161e-19,-8.309811452017998e-19,-2.779767851176927e-11,-8.026377605547704e-11,2.424006370586467e-11,7.143538440663262e-11,
564,-3.000000000003524e-04,1.146666666665436e-02,3.664829800056407e-19,-5.743237461403332e-19,5.646352438766390e-12,-8.243970656938884e-11,6.650291770680166e-11,1.595296400223443e-10,
565,-4.000000000001762e-04,1.146666666665341e-02,1.465546598915432e-19,-3.805790082759899e-19,-2.971436129014404e-10,-4.529546176359816e-10,-3.430637996405162e-11,1.702491703983862e-10,
566,3.999999999998305e-04,1.133333333332784e-02,-1.199737898672192e-19,-6.788935280548629e-19,-3.427741397244761e-10,-4.874959927433039e-10,-3.999876904172754e-11,1.653602758845576e-10,
567,2.999999999996611e-04,1.133333333332686e-02,1.660186537345928e-19,1.662272042387780e-18,3.496335409642859e-10,5.106211631183338e-10,1.300945040610066e-10,3.059662308725124e-10,
568,1.999999999995481e-04,1.133333333332588e-02,-1.943434035241890e-19,3.922648228435206e-19,-1.797568142039095e-10,-3.227277275673439e-10,-1.249312322825434e-11,1.451378468214272e-10,
569,9.999999999949180e-05,1.133333333332490e-02,-1.999739514436234e-19,-5.841983288819175e-19,-2.344537674364266e-10,-3.528317583935260e-10,-1.664943641513903e-11,1.229722069201254e-10,
570,-5.647067015390750e-16,1.133333333332392e-02,-1.812623027816624e-19,1.060723332018957e-20,-1.548903130350453e-10,-1.237667027487132e-10,1.380617142507112e-10,2.778719613142637e-10,
571,-1.000000000005082e-04,1.133333333332294e-02,3.788707364618302e-19,-1.472762193650969e-18,3.341092363845882e-10,4.848917561878617e-10,4.949342409922779e-11,1.803711850448644e-10,
572,-2.000000000004517e-04,1.133333333332196e-02,-1.832966531417015e-19,5.653991031581289e-19,-3.397233348266279e-11,-1.840097669317898e-10,3.757723087286346e-13,1.500393156986303e-10,
573,-3.000000000003388e-04,1.133333333332098e-02,-2.334143391799522e-19,6.590378455257768e-19,3.459479875019850e-12,9.812217684704255e-12,-1.399948525806232e-10,2.800617651054144e-10,
574,-4.000000000001693e-04,1.133333333332000e-02,-1.171740289110176e-19,-7.890947281787312e-19,6.940187429898892e-10,1.093481619905175e-09,-5.979884157276273e-11,4.169822488394606e-10,
575,3.999999999998372e-04,1.119999999999466e-02,-4.631934554125716e-19,3.541127157886142e-19,1.929532245604091e-10,2.773645063675789e-10,1.344163941989671e-10,2.817735484642551e-10,
576,2.999999999996748e-04,1.119999999999365e-02,-2.624597852706147e-19,6.048984103611516e-19,-1.240503858715071e-10,2.913680185423141e-11,-9.370028746683944e-11,2.420439835418225e-10,
577,1.999999999995662e-04,1.119999999999264e-02,6.227566680507033e-19,6.949463661177796e-20,1.456019178549226e-10,3.320009100924906e-10,-9.660007518387977e-11,2.684602063794667e-10,
578,9.999999999951215e-05,1.119999999999164e-02,2.793620244009877e-19,1.553625511378123e-18,-7.815602191597221e-11,-2.361388193277788e-10,-6.936158049433170e-11,2.102443332714262e-10,
579,-5.421552963513765e-16,1.119999999999063e-02,-3.155803553150871e-20,1.094015465412138e-18,-1.015827188699876e-10,-1.434599988743024e-10,-9.160385218951173e-11,1.879328856916517e-10,
580,-1.000000000004879e-04,1.119999999998962e-02,3.559982987282022e-19,-7.414192219127988e-20,-1.633647611048452e-10,-2.069532121300507e-10,7.364451345806558e-11,1.536034195995569e-10,
581,-2.000000000004336e-04,1.119999999998861e-02,1.756699187202330e-19,8.267080718520402e-19,4.644461862253987e-10,7.498981458663957e-10,-6.130600345165241e-11,3.106710889344894e-10,
582,-3.000000000003253e-04,1.119999999998761e-02,6.287402635266973e-19,-6.401201739342196e-19,-9.453249962987414e-11,-7.998771979949925e-11,3.638719131309764e-11,7.421361995575983e-11,
583,-4.000000000001626e-04,1.119999999998660e-02,5.260067296258712e-19,4.855318164499029e-19,1.411269758170652e-10,2.323479186377538e-10,-8.713471203704186e-12,9.287065591868330e-11,
584,3.999999999998440e-04,1.106666666666148e-02,-3.102018889790603e-19,-1.879260189963015e-20,9.757104982912773e-11,1.809151472524447e-10,-2.151891503522278e-10,4.383739502896610e-10,
585,2.999999999996882e-04,1.106666666666044e-02,-4.182738519725198e-19,1.112428896090199e-18,2.167974182745616e-11,3.406822771173976e-12,-1.415185170252179e-11,3.368974914240407e-11,
586,1.999999999995843e-04,1.106666666665941e-02,-4.573693777780878e-19,2.555077182042258e-20,1.864655082687719e-10,3.569292939571993e-10,1.490778053011430e-12,1.704898586662664e-10,
587,9.999999999953246e-05,1.106666666665837e-02,2.470928813305270e-20,-6.917828813900756e-19,3.080035111705670e-10,5.029317999989126e-10,-4.481003076685664e-11,2.145432199228245e-10,
588,-5.195767861093659e-16,1.106666666665734e-02,-2.261911942260161e-19,5.841966980605924e-19,2.299826005050286e-10,2.982978081133122e-10,1.027097086081116e-10,2.164811875429725e-10,
589,-1.000000000004676e-04,1.106666666665630e-02,-2.266654559060323e-19,8.264206524211551e-20,-1.170207941966552e-10,-1.655914789569905e-10,5.471455145550361e-11,1.197240158948725e-10,
590,-2.000000000004155e-04,1.106666666665527e-02,-2.759063032303255e-19,5.207994365335064e-19,-2.873834801679730e-10,-4.087628068371563e-10,1.286189610817745e-10,2.844367935793194e-10,
591,-3.000000000003117e-04,1.106666666665423e-02,-8.700062585032098e-20,-1.342793835022732e-18,5.348737046546230e-10,8.257205725725535e-10,-1.361198247480341e-10,3.983796271590857e-10,
592,-4.000000000001559e-04,1.106666666665320e-02,-5.562048893057652e-20,1.239957812683308e-18,-4.125692062584246e-10,-5.449342963158164e-10,1.334429509540857e-11,1.350288780678964e-10,
593,3.999999999998507e-04,1.093333333332829e-02,1.084555529893722e-19,1.170176589086639e-18,-3.350353991089955e-10,-4.040176422984683e-10,-8.614934326290700e-11,1.855946854141365e-10,
594,2.999999999997018e-04,1.093333333332723e-02,2.814422338774564e-19,3.817361802270409e-19,-1.890561719731631e-10,-2.877018030912281e-10,-1.083955164531327e-11,1.009997230598531e-10,
595,1.999999999996024e-04,1.093333333332617e-02,1.189161137384056e-19,-1.259109912222587e-19,8.909589683825006e-11,1.508659088326605e-10,-5.599642154551506e-11,1.278981285453455e-10,
596,9.999999999955284e-05,1.093333333332511e-02,3.600084663095303e-19,-3.003842298477743e-19,-3.573285284164185e-10,-6.055325351790808e-10,7.071053170252876e-11,2.856661445597939e-10,
597,-4.969169607044188e-16,1.093333333332404e-02,-2.703939097857616e-19,4.101592366729454e-19,2.005717243895574e-10,1.771067452970903e-10,7.859996906631845e-11,1.589415798106801e-10,
598,-1.000000000004472e-04,1.093333333332298e-02,-2.985788034456743e-19,1.074051335502081e-18,-1.897234936306470e-10,-3.024306528233283e-10,9.444816631111043e-12,1.142791406078364e-10,
599,-2.000000000003975e-04,1.093333333332192e-02,-2.924421447896555e-19,8.565619433705535e-19,1.191257847664073e-10,2.242285330190392e-10,1.629859803638068e-12,1.051532855510191e-10,
600,-3.000000000002981e-04,1.093333333332086e-02,2.627902001104992e-20,5.541890012871446e-19,-2.207271492069454e-10,-2.269561572001375e-10,-1.400674795494402e-10,2.802042038405396e-10,
601,-4.000000000001492e-04,1.093333333331979e-02,2.769168245041711e-19,-5.199569524619381e-19,1.856103621424594e-10,2.867162351644024e-10,-1.132678231845637e-10,2.480741756721316e-10,
602,3.999999999998576e-04,1.079999999999511e-02,-2.478779173785875e-19,-1.054215212261893e-18,6.819895135078559e-11,2.199666202361111e-10,7.823290032645028e-11,2.179792928074569e-10,
603,2.999999999997154e-04,1.079999999999402e-02,2.839771935916449e-19,-5.516998754873841e-19,-3.391501704010664e-10,-4.460957118948582e-10,-2.144384499350307e-11,1.152245754942142e-10,
604,1.999999999996204e-04,1.079999999999293e-02,1.868055202375292e-19,2.617906679676903e-19,1.430383642774467e-10,1.468376528699128e-10,1.054881313024149e-10,2.110104688789420e-10,
605,9.999999999957314e-05,1.079999999999184e-02,-3.315884186567426e-20,-2.654037040036440e-19,-8.774026322777649e-11,-1.423181760937222e-10,3.709395532235537e-11,9.210100248439400e-11,
606,-4.744197656253446e-16,1.079999999999075e-02,8.876073708964808e-20,1.697391813573427e-18,-6.712400733163546e-11,-1.021477965051651e-10,-1.069054528535447e-10,2.166604929546633e-10,
607,-1.000000000004269e-04,1.079999999998966e-02,-3.936031756127876e-20,-1.364669806546817e-18,5.033746343136472e-10,7.300789079678154e-10,4.766762397238260e-11,2.459342131419577e-10,
608,-2.000000000003794e-04,1.079999999998857e-02,-6.774930800439457e-20,8.385005818676221e-19,-3.420156132877409e-10,-4.709287736830086e-10,5.512818366950970e-13,1.289178752917911e-10,
609,-3.000000000002846e-04,1.079999999998748e-02,9.827394223177811e-20,-6.811266304726973e-20,1.199624386300176e-10,2.045086222652250e-10,3.759982502833576e-11,1.131505392648399e-10,
610,-4.000000000001424e-04,1.079999999998639e-02,3.812394734266769e-20,5.437849214885573e-19,-5.250331203086810e-11,-7.392285906382486e-11,1.491422695630795e-10,2.990526095468858e-10,
611,3.999999999998644e-04,1.066666666666193e-02,2.556295559414194e-19,1.279011202346864e-18,-1.869521162862222e-10,-2.385733048323371e-10,1.694350928654240e-11,6.175011849936919e-11,
612,2.999999999997289e-04,1.066666666666081e-02,3.619994408002678e-19,-1.146213117564150e-18,7.966028351335230e-11,9.729220946406718e-11,1.411318377382948e-10,2.828138386046286e-10,
613,1.999999999996384e-04,1.066666666665969e-02,8.573298042484600e-20,1.449277228142640e-19,-9.893059131452650e-11,-2.286889467836851e-10,-1.477725713618300e-10,3.227757150121570e-10,
614,9.999999999959347e-05,1.066666666665858e-02,-1.082268305765781e-19,6.522093571749391e-19,2.663202521203303e-11,3.392764543647796e-11,3.388021486355698e-11,6.815204994174774e-11,
615,-4.517599402203976e-16,1.066666666665746e-02,8.085961464172274e-20,-1.302876615132367e-18,-1.397308686510282e-10,-1.431579001427220e-10,5.855335804558094e-11,1.171568499853980e-10,
616,-1.000000000004066e-04,1.066666666665634e-02,2.375757427025093e-19,1.622216655196966e-18,-1.286558824783261e-10,-1.782714842533530e-10,6.664360491971604e-12,5.137472863739397e-11,
617,-2.000000000003613e-04,1.066666666665522e-02,1.284031011315928e-19,-6.669002365147167e-19,1.607202398768263e-10,2.397028879500526e-10,-3.769034661740672e-11,1.091810771572628e-10,
618,-3.000000000002710e-04,1.066666666665410e-02,2.135820622991360e-19,1.632184789741296e-18,-7.811141052371419e-11,-1.124325894327730e-10,2.262255785798558e-11,5.678964534014316e-11,
619,-4.000000000001355e-04,1.066666666665298e-02,2.531335686950068e-19,-1.379093641770866e-18,-4.204007353424714e-11,-8.838503143979882e-11,-6.392143888437357e-11,1.359840303839469e-10,
620,3.999999999998711e-04,1.053333333332875e-02,-4.474913036709732e-19,-5.720253590774489e-19,2.151927057666132e-10,3.328993905373803e-10,5.149877413024553e-11,1.564076679303062e-10,
621,2.999999999997424e-04,1.053333333332760e-02,-3.219668338813148e-19,-5.511705113643723e-19,-1.490785362650854e-10,-1.543396103652646e-10,-3.777383953519585e-13,5.315039592408530e-12,
622,1.999999999996566e-04,1.053333333332646e-02,-1.332722900722578e-19,-5.112018620467727e-19,9.681450538713474e-11,2.235252739480711e-10,6.723130353407288e-11,1.847587929405953e-10,
623,9.999999999961380e-05,1.053333333332531e-02,1.355506466732544e-19,-5.581888145219216e-19,2.116120146471384e-11,-2.336507979512411e-11,-2.465657015661411e-11,6.644076708153158e-11,
624,-4.291814299783869e-16,1.053333333332417e-02,-4.056309609453878e-19,-4.200204925050945e-19,-3.369764518436186e-10,-5.616472470248080e-10,-6.566422854135920e-11,2.602386017620665e-10,
625,-1.000000000003863e-04,1.053333333332302e-02,-1.167264762692026e-19,-3.059306121075071e-19,2.006381076522916e-10,3.004502502989690e-10,-4.572979139347918e-11,1.353784292392446e-10,
626,-2.000000000003433e-04,1.053333333332187e-02,-4.143928923955420e-19,4.727614947942312e-19,7.274460337107178e-11,1.242345885416901e-10,8.704569610748966e-11,1.815462239106621e-10,
627,-3.000000000002575e-04,1.053333333332073e-02,-1.347087198863885e-19,-1.801863764135892e-18,-1.466735822663175e-10,-1.772735233558745e-10,3.577387535220705e-11,7.781668860562848e-11,
628,-4.000000000001288e-04,1.053333333331958e-02,-2.576810042447423e-19,7.515018909775133e-19,1.289352183420480e-10,1.309352574343224e-10,-3.870139256951580e-11,7.742862070093793e-11,
629,3.999999999998779e-04,1.039999999999557e-02,5.132068682055356e-20,6.287371997116623e-19,1.252094238410964e-10,3.307889289427220e-10,3.616731814222290e-11,2.179340095630611e-10,
630,2.999999999997561e-04,1.039999999999440e-02,6.180168137151997e-19,-1.520774310873963e-18,-5.941308176413374e-11,-4.972388897484128e-11,1.843411110928494e-11,3.812015564587752e-11,
631,1.999999999996747e-04,1.039999999999322e-02,2.761185405462472e-19,-1.073658213807085e-18,5.832782396232593e-11,3.272634079957060e-11,-8.460112797357869e-11,1.711281372473276e-10,
632,9.999999999963410e-05,1.039999999999205e-02,2.726399135399308e-19,3.921853333156822e-19,-1.249606104805249e-10,-1.823452659517993e-10,6.740297157134742e-11,1.465115728881113e-10,
633,-4.066300247906884e-16,1.039999999999087e-02,3.162932978068986e-19,-1.191781378008651e-18,3.111004755748668e-10,4.393734244395552e-10,-7.740056541109384e-11,2.010406414491135e-10,
634,-1.000000000003660e-04,1.039999999998970e-02,1.013161718635583e-19,-3.622299243173902e-19,2.791614672573813e-11,2.401354645967350e-11,-1.125905363125900e-10,2.252148879569539e-10,
635,-2.000000000003252e-04,1.039999999998853e-02,2.021681707856687e-19,9.887267445952782e-19,-1.276331767183283e-11,4.151909125316767e-12,4.345744304345549e-11,8.854559458888805e-11,
636,-3.000000000002440e-04,1.039999999998735e-02,1.910278682230389e-19,-7.074720171934973e-19,3.359446327206493e-10,5.082080306394817e-10,1.308528785657870e-10,3.133122748606449e-10,
637,-4.000000000001220e-04,1.039999999998617e-02,2.794539298614720e-19,4.699159437013349e-20,-3.877314550203508e-10,-5.467883382224145e-10,-2.028649404853099e-11,1.641501125710220e-10,
638,3.999999999998848e-04,1.026666666666240e-02,-6.636874232529212e-19,5.488153598280192e-20,-1.137231168541884e-10,-6.772893025522784e-11,-5.540215597129613e-11,1.199710829573998e-10,
639,2.999999999997695e-04,1.026666666666119e-02,-2.179802766426834e-19,1.050754799621402e-18,-1.957411121728231e-10,-2.490439402340461e-10,-4.324342279117214e-11,1.015931392275510e-10,
640,1.999999999996926e-04,1.026666666665999e-02,-4.532970982349641e-19,3.487633396431116e-19,6.473947147575555e-11,1.163168302046016e-10,1.180813632504147e-10,2.417293058810818e-10,
641,9.999999999965446e-05,1.026666666665878e-02,-1.358660196421391e-19,-9.889179039014998e-19,3.547558354303263e-13,-7.610816847761215e-12,-4.815663544799495e-11,9.664210520707598e-11,
642,-3.840244094943657e-16,1.026666666665758e-02,-4.764938637363445e-19,-1.067852262926400e-19,-1.177762709873596e-10,-2.250797712704419e-10,5.728336579407981e-11,1.569699880862417e-10,
643,-1.000000000003457e-04,1.026666666665638e-02,-3.836992986644091e-19,6.809195135815815e-19,-1.067697267260493e-10,-6.285256234103894e-11,6.448696424296300e-11,1.362460698762088e-10,
644,-2.000000000003071e-04,1.026666666665518e-02,-3.374842890893801e-20,1.103510795817031e-19,2.495925076012393e-10,3.919314645680747e-10,-3.254445855602274e-12,1.424876989136775e-10,
645,-3.000000000002303e-04,1.026666666665397e-02,-2.484999148811369e-19,4.680642793360516e-20,1.160234054517717e-10,1.913527621182010e-10,-3.550540626023900e-11,1.035231735921798e-10,
646,-4.000000000001153e-04,1.026666666665277e-02,1.575201250902675e-19,-1.460955226576426e-18,1.492479656644662e-11,1.617768244017580e-10,9.948919152290657e-11,2.473012636418775e-10,
647,3.999999999998915e-04,1.013333333332922e-02,-4.783320323872095e-19,4.823573163644557e-19,1.628413013304388e-10,2.585447925164499e-10,4.676118786174090e-11,1.338117819407357e-10,
648,2.999999999997831e-04,1.013333333332798e-02,-1.499436093970908e-19,1.535161314991849e-19,-4.125592346665796e-11,2.974229693045873e-11,7.104465536788471e-14,7.099836257921574e-11,
649,1.999999999997107e-04,1.013333333332675e-02,-9.960329986559540e-21,9.718052335673042e-19,-3.042203701158739e-10,-2.951071408969975e-10,-2.255736612120971e-11,4.602597106092369e-11,
650,9.999999999967476e-05,1.013333333332552e-02,7.685730521998373e-19,-9.690954213474587e-19,-5.736444675076808e-11,-2.815962182989326e-11,-3.878328483316764e-12,3.021733816796204e-11,
651,-3.613374790351065e-16,1.013333333332429e-02,3.219339242628456e-19,-4.352954180119000e-19,3.049495183546399e-10,3.155332837139012e-10,-1.276782415710920e-10,2.555757217967395e-10,
652,-1.000000000003253e-04,1.013333333332306e-02,-7.180616571134758e-20,-7.267947505165458e-19,-3.473443477243314e-10,-5.334732502295300e-10,1.236952298003818e-10,3.095900641966191e-10,
653,-2.000000000002891e-04,1.013333333332183e-02,2.345319525358366e-19,-9.848638558757489e-20,-4.947692484053379e-11,-3.422021196042251e-11,4.179428432983916e-11,8.496950098994291e-11,
654,-3.000000000002168e-04,1.013333333332060e-02,1.622933592356661e-19,-2.164760700430825e-20,-5.346163706231078e-11,-1.320982799327804e-10,1.559672212613223e-11,8.459759196488341e-11,
655,-4.000000000001084e-04,1.013333333331936e-02,-5.216492156343521e-20,2.271767961029927e-19,-9.677366910134266e-11,-2.376104997733596e-10,-4.301538516886581e-11,1.650342580152433e-10,
656,3.999999999998983e-04,9.999999999996031e-03,-1.314937842784133e-19,2.401568742519347e-19,5.326141962282800e-11,5.557160315828642e-11,-5.569412228534581e-11,1.114121985085462e-10,
657,2.999999999997966e-04,9.999999999994768e-03,-3.702719487499492e-19,1.107685402439491e-18,-2.703752554798658e-10,-3.873917790713821e-10,-3.303618513782557e-11,1.343816390258977e-10,
658,1.999999999997288e-04,9.999999999993512e-03,-5.323467723589942e-20,1.786614193496458e-19,9.702881171570861e-11,1.782295036623381e-10,1.438755571015342e-10,2.989887223587517e-10,
659,9.999999999969511e-05,9.999999999992258e-03,-2.244256333806670e-19,4.410314680337740e-19,1.041901022647233e-10,6.672685206042600e-11,5.727825068985045e-11,1.205267070994110e-10,
660,-3.388673890103444e-16,9.999999999990995e-03,-4.774436271621919e-19,1.053183872786773e-19,3.245526006983801e-11,8.013798759030536e-11,-5.464752768425193e-11,1.192436649545604e-10,
661,-1.000000000003050e-04,9.999999999989739e-03,-1.120953480213091e-20,1.138826168205551e-18,-1.462920023802673e-10,-1.841233157341081e-10,-7.628692804652830e-11,1.571941151353359e-10,
662,-2.000000000002710e-04,9.999999999988478e-03,-3.016094354292225e-19,-3.146335230925909e-19,-6.767129762516737e-11,-9.193686039927464e-11,1.449467311490681e-11,3.780475805472307e-11,
663,-3.000000000002033e-04,9.999999999987221e-03,-1.437704373564884e-20,1.346177868250186e-18,1.198456102199217e-10,2.914289513197552e-10,5.691737502300427e-11,2.059106438750048e-10,
664,-4.000000000001017e-04,9.999999999985961e-03,2.714167667139254e-19,-1.275946331753452e-20,-1.318271225491213e-10,-1.694045703622566e-10,1.040007324335279e-10,2.113685737544489e-10,
665,3.999999999999051e-04,9.866666666662850e-03,-1.893451086540037e-19,1.195231739211901e-19,-1.787360904385642e-10,-2.258678292129569e-10,3.877078339235899e-11,9.074191633047252e-11,
666,2.999999999998102e-04,9.866666666661564e-03,-1.673816990711888e-19,2.504432679519415e-20,7.841514905918321e-11,1.913331255502884e-10,2.022450526561118e-11,1.199441197716700e-10,
667,1.999999999997468e-04,9.866666666660279e-03,2.056604197037355e-19,1.621242811502513e-19,3.345783992512381e-10,5.594257907751560e-10,3.681265337200219e-11,2.365946644966000e-10,
668,9.999999999971547e-05,9.866666666658995e-03,1.759973270545766e-19,1.865076673411894e-19,-8.936541441802288e-11,-7.384160533700764e-11,-7.688111334151155e-11,1.545438805094048e-10,
669,-3.163159838226459e-16,9.866666666657704e-03,5.344303090034864e-19,-2.340921644085753e-19,-2.090232562836769e-10,-3.136150705010459e-10,6.304510586922229e-12,1.053491101824931e-10,
670,-1.000000000002846e-04,9.866666666656417e-03,1.669728769639344e-19,-1.362665106324108e-19,1.826929109584446e-10,2.739640895041138e-10,5.742780479949080e-11,1.467045980515576e-10,
671,-2.000000000002528e-04,9.866666666655128e-03,5.319958094211383e-19,5.016648158825021e-19,6.010587374464265e-11,6.446810466971099e-11,-3.472137305300650e-11,6.957962378015425e-11,
672,-3.000000000001897e-04,9.866666666653846e-03,6.804498188946876e-20,6.844062089230279e-21,2.840041863684672e-10,4.100696912186963e-10,-6.237742268111331e-11,1.773591919086695e-10,
673,-4.000000000000950e-04,9.866666666652559e-03,4.140987836391569e-19,2.044104831508852e-19,-1.943201629508967e-10,-1.694815534839312e-10,1.745294655607304e-11,4.284131060330664e-11,
674,3.999999999999118e-04,9.733333333329670e-03,1.816450151734810e-20,-4.459982354796578e-19,-1.168227120597473e-10,-1.634114311457498e-10,5.793340420358587e-11,1.248824488730851e-10,
675,2.999999999998237e-04,9.733333333328355e-03,-7.588442706252176e-20,-2.735205910996131e-19,3.490132520779151e-10,5.193775011992010e-10,3.227999829121236e-11,1.821866365499463e-10,
676,1.999999999997649e-04,9.733333333327040e-03,8.346516151725130e-21,8.169290138561567e-19,-1.323213368940349e-10,-1.547507217570850e-10,3.744436201925134e-11,7.817543279988820e-11,
677,9.999999999973577e-05,9.733333333325725e-03,1.784033257654799e-19,4.667823657984263e-20,-1.755071410837847e-10,-2.319204502858031e-10,7.068546876305458e-11,1.522110489817793e-10,
678,-2.936561584176989e-16,9.733333333324410e-03,1.917565767725592e-19,-4.031567220182123e-19,1.142770224778208e-10,2.191513755127764e-10,5.564413888479208e-11,1.529173328744019e-10,
679,-1.000000000002643e-04,9.733333333323095e-03,4.089267737091876e-19,6.047531867187538e-20,1.292792976646272e-10,2.056137260573236e-10,7.317066527008156e-11,1.650537184746378e-10,
680,-2.000000000002349e-04,9.733333333321780e-03,2.242427637590920e-19,-1.585823073108346e-20,-1.252420816468278e-10,-2.796592472863629e-10,4.061040242487527e-11,1.744748697795442e-10,
681,-3.000000000001762e-04,9.733333333320465e-03,-5.991589877153252e-20,-5.267129631643774e-19,1.484625029480735e-12,4.225765947060583e-12,3.304267659325362e-11,6.614217836838633e-11,
682,-4.000000000000881e-04,9.733333333319150e-03,2.093470874131785e-19,-4.488424493171321e-19,-9.576112381607894e-11,-1.258347649075977e-10,4.153044087096805e-11,8.833761353041738e-11,
683,3.999999999999186e-04,9.599999999996488e-03,2.302492327900013e-19,-1.077965529883114e-19,8.364093455238653e-11,1.143805435738061e-10,3.398687954348160e-11,7.460131022443404e-11,
684,2.999999999998372e-04,9.599999999995147e-03,-4.515357531905915e-20,7.289558072369159e-19,1.759081481153500e-10,2.152092160345872e-10,3.743041616830357e-11,8.455009259440285e-11,
685,1.999999999997830e-04,9.599999999993808e-03,-3.925760048316046e-20,-4.168418592659810e-19,1.216371767387280e-10,1.598957490221474e-10,6.583992414489042e-12,4.046126762252797e-11,
686,9.999999999975611e-05,9.599999999992462e-03,-1.390120706629634e-19,-4.260264712312707e-19,-6.572704193668077e-11,-1.951473612607591e-10,-8.967152899108811e-11,2.211640827538337e-10,
687,-2.711047532300004e-16,9.599999999991119e-03,-5.601110088691381e-19,-3.176050518681140e-19,-4.660465720137202e-11,-6.495192857806912e-11,5.774407272477168e-11,1.169364532827341e-10,
688,-1.000000000002440e-04,9.599999999989776e-03,-8.933839024321392e-20,-9.842407977256216e-19,-3.846967565815109e-11,-5.706406447704817e-12,-9.485255084181949e-11,1.925135252759036e-10,
689,-2.000000000002168e-04,9.599999999988434e-03,-2.907496505499519e-19,3.916986464945205e-19,6.430293083961267e-12,-1.217639151225501e-11,-1.177116296722853e-10,2.361574046099001e-10,
690,-3.000000000001626e-04,9.599999999987091e-03,-2.303437284929029e-19,9.054776780524061e-19,-8.298293568016773e-11,-1.002311464422703e-10,-1.228062475495256e-10,2.462173806279226e-10,
691,-4.000000000000813e-04,9.599999999985752e-03,-1.014505243821030e-19,1.646739689329506e-19,3.854122347759094e-10,5.882572142900563e-10,-2.209618634087420e-11,2.076031105675856e-10,
692,3.999999999999254e-04,9.466666666663310e-03,5.983167195594946e-20,5.226337078481403e-19,4.758582175457871e-11,1.555091920792157e-11,-4.426380812460998e-11,9.414549282861591e-11,
693,2.999999999998509e-04,9.466666666661940e-03,-1.095543990015560e-19,5.864858445941400e-19,-2.144624898765576e-10,-2.882095341726373e-10,5.314291821672731e-11,1.293650090587366e-10,
694,1.999999999998011e-04,9.466666666660566e-03,1.858427353469125e-19,-1.177389169836371e-19,1.021528486852878e-10,1.592074370691677e-10,-8.997076132122995e-11,1.887701714427914e-10,
695,9.999999999977643e-05,9.466666666659195e-03,-1.537305582499182e-19,-2.287987870799576e-19,9.053455674789220e-11,1.321752630544538e-10,1.089598316767912e-11,4.699827888838809e-11,
696,-2.484991379336776e-16,9.466666666657825e-03,1.592942368546095e-19,3.214102645252069e-19,1.573845664722221e-10,2.827458979080153e-10,9.541588934388190e-12,1.268054852793290e-10,
697,-1.000000000002237e-04,9.466666666656456e-03,8.231410078391415e-20,2.558463831272510e-19,3.209019400928188e-10,4.513262634918754e-10,6.884589025531271e-11,1.896563485736451e-10,
698,-2.000000000001987e-04,9.466666666655086e-03,6.974559848191573e-21,-5.435860936880640e-19,-2.497101942402366e-10,-3.669078708559247e-10,2.697428405356627e-11,1.290183839804442e-10,
699,-3.000000000001490e-04,9.466666666653713e-03,1.136293836070961e-19,1.861351706608173e-19,-1.148494970180831e-10,-1.545775377906017e-10,1.922733107795592e-11,5.529085155021781e-11,
700,-4.000000000000746e-04,9.466666666652343e-03,7.505844961403251e-20,4.067051134108083e-19,1.900673635308359e-10,2.227722185362345e-10,1.987643627935236e-11,5.147716403991932e-11,
701,3.999999999999323e-04,9.333333333330130e-03,-2.794873404276014e-20,4.116951437247093e-19,1.046882244845702e-10,1.813389171518631e-10,1.622065710944447e-10,3.333454897118670e-10,
702,2.999999999998645e-04,9.333333333328730e-03,-1.275873418311496e-21,7.192185148538682e-19,-1.903443546696145e-10,-3.504233153645964e-10,-7.116046093792723e-11,2.141973820119626e-10,
703,1.999999999998192e-04,9.333333333327334e-03,-4.057720847803623e-19,-4.092056124373336e-19,1.706993683888082e-10,2.557646645393546e-10,5.492053888458486e-11,1.389286398647628e-10,
704,9.999999999979674e-05,9.333333333325937e-03,1.078307360575508e-20,-4.340439240427256e-19,-2.007110090518722e-11,5.767893845299888e-11,1.791913317525856e-11,8.561220681193831e-11,
705,-2.258935226373548e-16,9.333333333324534e-03,4.721770048802642e-20,1.439700643654121e-19,5.065382680569886e-11,7.675080138703461e-11,-1.437135270846789e-11,3.882261192892145e-11,
706,-1.000000000002034e-04,9.333333333323136e-03,2.542540169861622e-20,4.639295071493424e-19,-3.079017626469516e-10,-4.271910458643740e-10,1.362022848305331e-11,1.223600244616219e-10,
707,-2.000000000001807e-04,9.333333333321737e-03,2.832698770629434e-19,8.726308140898001e-20,1.123770921052855e-10,1.619626668758420e-10,-4.705466497016462e-11,1.063733764019184e-10,
708,-3.000000000001355e-04,9.333333333320339e-03,-1.216638772492766e-20,-6.126721850597878e-19,1.701385613587734e-10,1.962732459259592e-10,-6.341639609465545e-11,1.294974089005770e-10,
709,-4.000000000000678e-04,9.333333333318943e-03,-9.093829010578222e-20,-6.993637966791577e-19,-3.384269325713168e-11,-9.031975492062569e-11,4.339536357798143e-11,1.035484853312828e-10,
710,3.999999999999390e-04,9.199999999996948e-03,-4.483374758461694e-20,-4.903137500334114e-19,2.862267869233050e-10,3.582831549953037e-10,-1.694749381538419e-11,7.963033571583939e-11,
711,2.999999999998779e-04,9.199999999995523e-03,-2.541206998141562e-19,5.226856056784258e-19,-1.414337078840147e-10,-2.171725361383859e-10,8.202608825098305e-11,1.806916896826674e-10,
712,1.999999999998373e-04,9.199999999994093e-03,-4.762866512246678e-20,8.303984678197868e-19,2.440685312513772e-10,4.133347874093512e-10,-7.070751712809661e-11,2.205658119188402e-10,
713,9.999999999981709e-05,9.199999999992671e-03,-6.358208472938160e-20,-6.246093217364024e-19,-3.146641253524180e-11,2.109211074681750e-11,-1.288401375041199e-11,5.853537059653753e-11,
714,-2.032879073410321e-16,9.199999999991241e-03,2.899319592609354e-19,3.501882083573627e-19,1.436137556952618e-10,2.394101681183188e-10,4.988529565987131e-11,1.383153047403632e-10,
715,-1.000000000001830e-04,9.199999999989815e-03,5.065130901294188e-20,-1.706137756705791e-19,-1.050009997290087e-10,-1.574772016329662e-10,-8.945066826329134e-11,1.864388370948030e-10,
716,-2.000000000001626e-04,9.199999999988389e-03,3.249192097985214e-19,-2.053301735507808e-19,4.241918454548534e-10,6.969453075367907e-10,-4.767732989412343e-11,2.889411051079701e-10,
717,-3.000000000001219e-04,9.199999999986963e-03,3.577972571957800e-19,1.954459119685597e-19,-7.305560604315217e-11,-1.248066442371739e-10,2.358095440850479e-11,7.001725214133319e-11,
718,-4.000000000000611e-04,9.199999999985537e-03,3.282595668926982e-19,-7.909708137689241e-19,1.932658670363302e-11,4.846794523933005e-11,-4.009122797220306e-11,8.531380321250877e-11,
719,3.999999999999458e-04,9.066666666663767e-03,-9.709468620429309e-20,1.045781837613658e-19,-1.166561078481587e-11,-9.167617010608214e-11,2.329994554877172e-11,9.259178934011793e-11,
720,2.999999999998914e-04,9.066666666662310e-03,-4.322927482528397e-19,3.361121853849217e-19,-1.088216563830507e-11,-3.653458944710723e-11,-1.350002501731583e-11,3.724311411709571e-11,
721,1.999999999998553e-04,9.066666666660859e-03,-1.624824166517949e-19,2.075430445059826e-19,-1.051114988853062e-10,-1.091330628640391e-10,-7.832377694347666e-11,1.566991675651182e-10,
722,9.999999999983742e-05,9.066666666659406e-03,-1.501022944067672e-19,-5.697331547845160e-19,1.473812447109039e-10,2.526074367037362e-10,-3.144140195136357e-11,1.225838427688626e-10,
723,-1.807365021533336e-16,9.066666666657949e-03,3.274203272657050e-20,1.253648323869168e-19,-6.457696402212347e-11,-1.367748492522610e-10,1.490426406925392e-10,3.067040423765646e-10,
724,-1.000000000001627e-04,9.066666666656495e-03,-3.319058941807557e-19,3.971257531479554e-19,-4.994431513483685e-11,-8.947320611915643e-11,-6.273890456562916e-11,1.315568843004072e-10,
725,-2.000000000001445e-04,9.066666666655041e-03,-3.864421163476229e-20,-9.194025004621267e-20,1.479170769165964e-10,2.741631626384016e-10,4.087460347912049e-11,1.504028157927194e-10,
726,-3.000000000001084e-04,9.066666666653584e-03,1.898833969237778e-20,-3.143292039210997e-19,1.455730556949945e-11,9.979628118521906e-11,7.687115201940556e-11,1.757907250544791e-10,
727,-4.000000000000542e-04,9.066666666652134e-03,3.485489646591432e-19,4.237778055354311e-19,2.824543223814627e-11,5.224546196132101e-11,-7.406522931602199e-11,1.500621011490009e-10,
728,3.999999999999525e-04,8.933333333330585e-03,-1.019516498191132e-19,-7.350444117859911e-19,4.561284885080360e-10,6.228062929181104e-10,8.383055213292825e-11,2.364143319822414e-10,
729,2.999999999999050e-04,8.933333333329102e-03,-2.569423211795667e-19,-1.514807331887370e-18,-2.755052028584594e-10,-3.666215569318808e-10,4.896944664330281e-11,1.337692670154031e-10,
730,1.999999999998735e-04,8.933333333327621e-03,7.740049115520411e-20,-9.374947656772497e-19,1.453520368430570e-10,2.629559820928261e-10,-5.679097607829334e-11,1.634978525669736e-10,
731,9.999999999985776e-05,8.933333333326139e-03,1.013588276257337e-20,1.913017838698854e-19,-1.435017700429106e-10,-2.271212188011150e-10,-1.038988364248506e-10,2.239912611071634e-10,
732,-1.581037818026987e-16,8.933333333324658e-03,-2.300932504636527e-20,-1.422083070909325e-19,-5.391728319247659e-11,-5.910322339725237e-11,2.604716026707538e-11,5.235181188576333e-11,
733,-1.000000000001424e-04,8.933333333323173e-03,1.207312213598576e-19,1.777223951857894e-19,1.857917245890172e-10,3.030101054239023e-10,8.179909636413523e-11,2.012573414052478e-10,
734,-2.000000000001265e-04,8.933333333321691e-03,6.580246024680692e-20,-1.791470287813989e-20,-3.002882027688190e-11,-6.391427569999259e-11,6.001417021135395e-11,1.247197923100463e-10,
735,-3.000000000000948e-04,8.933333333320210e-03,-1.580881625659084e-20,4.937442607568800e-19,1.341216540455072e-10,2.171534717230674e-10,-4.024763475790064e-11,1.156450222070154e-10,
736,-4.000000000000475e-04,8.933333333318727e-03,1.204038905978222e-19,2.428040785881161e-19,2.326689695555460e-11,7.380389535115691e-11,5.002523042975323e-11,1.120896200592934e-10,
737,3.999999999999592e-04,8.799999999997402e-03,1.053322371628525e-19,4.824303311147389e-19,-1.757462128143217e-10,-3.374040735034132e-10,-8.084180854420804e-11,2.286369523007322e-10,
738,2.999999999999187e-04,8.799999999995898e-03,-6.094327571541414e-20,1.009920939900116e-19,-7.208475527258362e-11,-1.775464533118817e-10,8.182661919436570e-11,1.946909144989849e-10,
739,1.999999999998915e-04,8.799999999994383e-03,-2.358139708483644e-19,-1.315691217499825e-20,-1.459954513274946e-10,-1.828280988627833e-10,3.350392789266339e-11,7.646369505462029e-11,
740,9.999999999987809e-05,8.799999999992874e-03,1.408669276649120e-19,6.107573251025812e-19,-2.051372579753433e-11,4.181951460577814e-11,2.794763216898319e-11,8.372403140430041e-11,
741,-1.354981665063759e-16,8.799999999991367e-03,1.497261416660098e-19,-2.086987733717913e-19,-9.839460580102242e-12,1.760033579627654e-11,-9.225320844603499e-11,1.865356810359012e-10,
742,-1.000000000001220e-04,8.799999999989854e-03,2.852878555966331e-19,-4.906046416027491e-19,1.119328274090487e-10,1.503793774691255e-10,-1.795538233974052e-11,5.260912688295685e-11,
743,-2.000000000001084e-04,8.799999999988345e-03,4.168010381039489e-20,-2.166539858352641e-19,2.452497599362490e-11,-1.166240783095972e-11,2.558999188279214e-11,6.268107757779278e-11,
744,-3.000000000000813e-04,8.799999999986834e-03,1.058015141362090e-19,-9.927049686179526e-19,-4.608127408089098e-12,1.878143171267580e-11,-1.540103193492874e-12,2.359150582837357e-11,
745,-4.000000000000407e-04,8.799999999985321e-03,1.725618505016990e-19,-9.406935112691610e-20,-2.199623496309706e-10,-3.609794750982601e-10,3.853932825897681e-12,1.412276207686139e-10,
746,3.999999999999661e-04,8.666666666664224e-03,-4.386252769581216e-19,1.014819401407937e-19,-9.032966489434238e-12,-1.508558756228087e-11,4.939876935637821e-11,9.898276555820244e-11,
747,2.999999999999322e-04,8.666666666662687e-03,-3.094226240681754e-19,9.304341664764355e-19,1.536141605790186e-10,2.455090403872947e-10,-9.246196887135174e-11,2.064982607317669e-10,
748,1.999999999999095e-04,8.666666666661150e-03,-3.458495265522579e-19,1.202089076317245e-20,1.102341821272878e-10,2.338312665935690e-10,2.211763894293869e-11,1.312745180840739e-10,
749,9.999999999989840e-05,8.666666666659609e-03,1.338170039573096e-20,-1.297057236117896e-18,-2.810976211197039e-10,-3.515490467219708e-10,5.930045244010113e-11,1.379477365084130e-10,
750,-1.129196562643653e-16,8.666666666658072e-03,3.657503422515834e-20,9.180759040661828e-20,1.671815509626397e-10,2.236368407556498e-10,8.018801081823607e-11,1.700225516264090e-10,
751,-1.000000000001017e-04,8.666666666656535e-03,-1.136998380872645e-19,-2.295864789458067e-19,3.305747553826223e-11,3.390957201855061e-11,-8.212160916138799e-11,1.642454286530824e-10,
752,-2.000000000000903e-04,8.666666666654995e-03,-1.935393666138724e-20,6.604689482898775e-20,5.388249008417805e-11,8.967342355863529e-11,-3.009893518427281e-12,3.629364620621778e-11,
753,-3.000000000000677e-04,8.666666666653458e-03,-6.697403437137920e-20,1.629745209000657e-19,-3.500430125522259e-10,-4.927436267608955e-10,-5.209197205317926e-11,1.766854818741155e-10,
754,-4.000000000000340e-04,8.666666666651921e-03,1.572383340072384e-19,2.137038370350608e-19,3.598612734144378e-10,5.963450302936897e-10,8.544393999555369e-11,2.917657190205528e-10,
755,3.999999999999729e-04,8.533333333331042e-03,-8.506351624609253e-21,-6.137918036510642e-20,-1.704834989102499e-10,-2.749109564477134e-10,-1.035027149248812e-10,2.318541392233999e-10,
756,2.999999999999458e-04,8.533333333329477e-03,-3.205201163945865e-19,8.405979662293018e-19,4.064016060017169e-10,5.296240119883508e-10,2.015020530079258e-11,1.296452252564327e-10,
757,1.999999999999276e-04,8.533333333327909e-03,-4.336909988295086e-19,6.816388419232415e-19,2.234294358334649e-10,4.087134293410679e-10,-3.974159583597639e-12,1.854543987823126e-10,
758,9.999999999991872e-05,8.533333333326348e-03,9.262163372497314e-20,1.772582373069697e-19,-1.612366449370092e-10,-1.358449114213972e-10,-3.974838996375834e-11,8.345344899865952e-11,
759,-9.034114602235466e-17,8.533333333324778e-03,1.915188352856561e-19,6.436537850160100e-19,1.226326396034262e-10,1.615558260891626e-10,5.731543512912005e-12,4.057606203619359e-11,
760,-1.000000000000814e-04,8.533333333323212e-03,-5.993863601148410e-20,-3.745711470620227e-19,3.086576021678273e-11,1.653393298740362e-11,-6.594038926880249e-11,1.326572313121964e-10,
761,-2.000000000000722e-04,8.533333333321647e-03,3.554274499243508e-20,2.631285890415477e-20,1.990921515401980e-10,3.877710142324553e-10,1.238387914449754e-10,3.113581511588418e-10,
762,-3.000000000000542e-04,8.533333333320082e-03,4.735292776627181e-19,1.737289349525744e-19,-5.886579147059611e-11,-6.823338172886544e-11,-6.616385223739547e-11,1.326588599333434e-10,
763,-4.000000000000271e-04,8.533333333318514e-03,1.774137698202222e-19,2.806817120527995e-19,5.154306111923868e-11,-1.101295016902660e-11,4.859213736240106e-11,1.155769778203401e-10,
764,3.999999999999797e-04,8.399999999997866e-03,-9.483583554563868e-20,-7.883158538760289e-20,2.069749073466084e-10,3.128482122764161e-10,4.953751267510723e-11,1.450000598100073e-10,
765,2.999999999999594e-04,8.399999999996273e-03,4.249072527243268e-20,3.233197794582145e-19,-2.712858428191162e-10,-3.465523052529713e-10,-4.465534933275855e-11,1.167965807009338e-10,
766,1.999999999999457e-04,8.399999999994677e-03,2.270895122823914e-19,4.150668549260414e-19,1.895880963039283e-11,5.830448894188063e-11,-4.140456172326068e-12,4.020766083400339e-11,
767,9.999999999993903e-05,8.399999999993081e-03,1.963815103040662e-19,1.043534670573949e-19,1.489345977280744e-10,2.499270547161623e-10,3.833632038402185e-11,1.267997248058381e-10,
768,-6.770842567171975e-17,8.399999999991487e-03,3.879034839811048e-19,4.910394194723721e-19,7.028201674223122e-11,7.937212036304126e-11,-2.010437406253109e-11,4.122345703142516e-11,
769,-1.000000000000611e-04,8.399999999989891e-03,4.123169750464960e-20,1.247828728524199e-18,2.740208639052757e-11,-6.418293505086804e-11,6.878105955428666e-11,1.652608627777981e-10,
770,-2.000000000000541e-04,8.399999999988295e-03,-1.650235610431486e-19,5.488934608388786e-19,1.074457990162026e-10,1.651278637691457e-10,4.338333145806058e-11,1.041905676525592e-10,
771,-3.000000000000407e-04,8.399999999986705e-03,6.148163201769569e-21,-1.170838936896588e-19,-2.497435569670338e-10,-3.281934991345172e-10,6.629647572471171e-11,1.540625983168876e-10,
772,-4.000000000000205e-04,8.399999999985112e-03,4.085356771804525e-20,-3.894631558969502e-19,2.584505175518283e-10,3.884560465776772e-10,-1.207378100076615e-11,1.322291281371420e-10,
773,3.999999999999864e-04,8.266666666664681e-03,-2.923262919835124e-19,1.737768675819528e-19,-7.434264443440582e-11,-6.664658933098840e-11,-3.795027706650902e-11,7.628973313529180e-11,
774,2.999999999999728e-04,8.266666666663062e-03,-4.611012567372193e-21,-7.629534682987244e-20,2.000130526620947e-11,3.556495963564740e-11,3.893999685864452e-11,7.941990152812018e-11,
775,1.999999999999638e-04,8.266666666661438e-03,-2.868641317811912e-19,1.662237610789595e-19,-1.501191826746304e-10,-2.006986571599127e-10,-5.687589506553522e-11,1.244899714725263e-10,
776,9.999999999995939e-05,8.266666666659813e-03,5.495418910905377e-20,3.018163415747164e-19,-1.542153850500774e-10,-2.201386598974015e-10,-6.622146570397974e-11,1.479425842904243e-10,
777,-4.510281037539698e-17,8.266666666658193e-03,-2.611315920996687e-19,9.300766615639306e-19,2.397156231115876e-10,3.205503872112459e-10,-7.907445252961771e-12,8.236728627775573e-11,
778,-1.000000000000407e-04,8.266666666656569e-03,-1.484017294433762e-19,-4.358680512835969e-20,-5.000642779242585e-11,-6.850532068751571e-11,5.701420156739317e-11,1.155192008274527e-10,
779,-2.000000000000361e-04,8.266666666654949e-03,-1.776656364684826e-19,8.259994037750432e-20,5.763240118056583e-11,1.344822436360570e-10,-4.306979824901353e-11,1.154379849541594e-10,
780,-3.000000000000270e-04,8.266666666653325e-03,2.748703173002980e-20,1.766931554977005e-19,-2.381651103180615e-10,-3.118762938545607e-10,-3.261595148931737e-11,9.843038019110510e-11,
781,-4.000000000000135e-04,8.266666666651705e-03,7.157635925845577e-20,-4.191124083246415e-19,4.096270663263519e-10,5.959174086338933e-10,-3.023396088698317e-11,1.958582681449102e-10,
782,3.999999999999932e-04,8.133333333331503e-03,2.073170917017637e-20,8.910225658338097e-20,-1.639348142662261e-10,-2.685306130124385e-10,-2.193972719957977e-11,1.134270145676332e-10,
783,2.999999999999864e-04,8.133333333329855e-03,1.262016909374462e-19,1.177037718029166e-20,-2.389195194574817e-11,-3.657771434329808e-11,-3.287433538450703e-11,6.696130431450163e-11,
784,1.999999999999819e-04,8.133333333328203e-03,-3.030182098129093e-20,-1.785290880902988e-19,-6.234753871479710e-11,-1.264412509811638e-10,3.591427250346033e-11,9.626704436044053e-11,
785,9.999999999997970e-05,8.133333333326552e-03,2.006367691011045e-20,2.238253256266157e-19,-1.103860897219841e-10,-1.612053408588735e-10,-2.561647750150681e-11,7.216239993552775e-11,
786,-2.257851024201063e-17,8.133333333324904e-03,-6.237172622729868e-20,3.064459324501171e-19,-1.491553099643747e-10,-2.620340133196612e-10,-1.181736326861047e-10,2.619191316419866e-10,
787,-1.000000000000204e-04,8.133333333323254e-03,-1.607280763469152e-19,4.951054359936654e-20,4.779984200686566e-11,9.514773633611203e-11,1.753771035592977e-11,5.892459788176264e-11,
788,-2.000000000000179e-04,8.133333333321604e-03,4.925298184803757e-21,4.284413447793842e-19,-9.058763269651832e-11,-1.390897988915521e-10,3.300230004660788e-11,8.190889670283699e-11,
789,-3.000000000000135e-04,8.133333333319953e-03,-8.560598744374395e-20,3.553577466602710e-19,4.813683104000140e-12,1.962641736417790e-11,4.205967177519639e-12,1.703460407101187e-11,
790,-4.000000000000068e-04,8.133333333318301e-03,-2.672287119725812e-20,1.740247530377687e-20,1.764883056369945e-10,2.933821670632993e-10,5.075407856359090e-12,1.173337713481745e-10,
791,4.000000000000000e-04,7.999999999998321e-03,-1.392331358259866e-19,1.036495584549559e-18,6.977727919229473e-11,9.719131916934893e-11,-3.360714888370939e-11,7.258988505453609e-11,
792,3.000000000000000e-04,7.999999999996642e-03,-1.565742320814292e-19,7.473633972491101e-20,-3.405856273568543e-11,-8.144601627705418e-11,6.694305483604447e-11,1.420248609091451e-10,
793,2.000000000000000e-04,7.999999999994966e-03,-2.849594469810997e-19,-4.807543219047347e-19,-1.827823431653344e-10,-2.863603350237684e-10,-4.230069744320050e-11,1.337377897759291e-10,
794,1.000000000000000e-04,7.999999999993287e-03,-2.387750502310137e-19,-6.819909994134051e-19,1.533199542512102e-10,2.748052233952489e-10,1.208527929504401e-11,1.238664059442930e-10,
795,0.000000000000000e+00,7.999999999991608e-03,-6.282929032149033e-20,6.337287820931230e-20,-4.818220346789276e-11,-3.198338974800519e-11,2.397152665704040e-11,5.060571041896764e-11,
796,-1.000000000000000e-04,7.999999999989932e-03,4.978986428881437e-21,1.393315979417269e-19,-2.116440441858040e-11,-6.134176206745958e-11,3.516557132856961e-13,4.018351296998181e-11,
797,-2.000000000000000e-04,7.999999999988253e-03,-2.089450870303704e-19,3.079732732233512e-19,-2.314698563357702e-10,-3.939070243347035e-10,-2.012958919672834e-11,1.673518299643893e-10,
798,-3.000000000000000e-04,7.999999999986573e-03,-2.246825217017095e-19,3.593437343056741e-20,-7.942292824062592e-11,-7.587138535745186e-11,-8.549290754066489e-12,1.746353190054324e-11,
799,-4.000000000000000e-04,7.999999999984894e-03,6.481940029059394e-21,1.798092024561703e-19,3.169555100094931e-10,4.598781135281285e-10,-1.800631835406208e-11,1.473898931379502e-10,
800,4.000000000000068e-04,7.866666666665179e-03,-4.617411286948059e-20,-9.097748216063614e-20,2.885376753798323e-11,5.211639388839467e-11,9.445145532544377e-12,2.996652934930283e-11,
801,3.000000000000135e-04,7.866666666663507e-03,3.281868155271446e-19,1.932194099924056e-19,-4.354803358418124e-11,-2.275275996643194e-11,-4.793771306805493e-11,9.810474372637501e-11,
802,2.000000000000179e-04,7.866666666661838e-03,1.534337061257621e-19,1.321886520059175e-18,-1.208193012141400e-10,-1.926417263896480e-10,8.900400492553298e-12,7.399546792745360e-11,
803,1.000000000000204e-04,7.866666666660169e-03,2.588415182885865e-19,-2.905517196966052e-19,2.742802771247967e-10,4.105583578848015e-10,1.128207061155266e-10,2.636015216368344e-10,
804,2.263272035063491e-17,7.866666666658497e-03,1.317940617537670e-19,2.031906676032128e-20,-1.208665434076464e-10,-2.333177017570526e-10,-4.869344288717651e-11,1.487597678639964e-10,
805,-9.999999999997974e-05,7.866666666656828e-03,-3.736189388760884e-20,3.448848670797741e-20,1.976088802383090e-10,2.768727134015430e-10,2.848029085403010e-11,9.760770008687643e-11,
806,-1.999999999999818e-04,7.866666666655159e-03,4.119557155174815e-20,-1.938252164108326e-19,-3.815033052560534e-10,-5.854813569181068e-10,4.372253996561670e-11,2.219317182469129e-10,
807,-2.999999999999864e-04,7.866666666653491e-03,-1.349917014888543e-19,-7.778991615312625e-19,9.016493044837746e-11,1.304312248054580e-10,2.550011139797733e-11,6.497997527306449e-11,
808,-3.999999999999932e-04,7.866666666651818e-03,1.021237622895310e-20,5.595385567819864e-19,-1.512928816859416e-10,-2.087619938378897e-10,3.627520052590316e-11,9.255408983027774e-11,
809,4.000000000000135e-04,7.733333333332031e-03,-4.080579786390754e-19,-1.689192310061973e-19,5.544808276416987e-11,8.440089137060906e-11,-5.184940239868684e-11,1.076647910999920e-10,
810,3.000000000000271e-04,7.733333333330371e-03,-1.791346037739634e-19,-9.825839118935994e-19,6.167680468106725e-11,1.305719603886086e-10,1.455726724254430e-11,7.479437544528182e-11,
811,2.000000000000361e-04,7.733333333328710e-03,-2.293563646922747e-19,8.465453245935380e-20,-1.874764904040725e-10,-2.092425381384800e-10,8.550358405351803e-12,2.768023391187987e-11,
812,1.000000000000407e-04,7.733333333327048e-03,2.119131447158456e-19,2.808798216775890e-20,1.621118670153643e-10,3.135470474344244e-10,4.362642535645577e-11,1.747732068312614e-10,
813,4.517057301117733e-17,7.733333333325386e-03,1.897595473361853e-19,8.224989191467766e-20,-1.560817993879881e-10,-2.201932989959947e-10,-1.157569987066770e-11,6.816356572224291e-11,
814,-9.999999999995939e-05,7.733333333323723e-03,3.007706951370634e-19,2.826008889596534e-19,5.425716856382269e-11,-5.569369317090050e-12,1.884825692706675e-11,7.071238782258146e-11,
815,-1.999999999999637e-04,7.733333333322063e-03,-3.119522219998370e-19,-9.757349285102917e-19,2.319147698385157e-11,1.842084212212983e-11,4.611649630363700e-12,1.038403612459093e-11,
816,-2.999999999999729e-04,7.733333333320400e-03,1.571297775714411e-19,6.352419779590709e-19,2.352832338173284e-10,4.044987587516413e-10,-1.330233366789390e-11,1.712941978084576e-10,
817,-3.999999999999864e-04,7.733333333318740e-03,-6.813132417244441e-20,2.932322069658199e-20,1.003597956704185e-11,-3.821060462949515e-12,-4.052551218285220e-11,8.222704001192546e-11,
818,4.000000000000203e-04,7.599999999998889e-03,1.385100215596608e-19,-2.090019557411194e-19,-1.262192616711956e-10,-2.501315427607900e-10,9.749456220613672e-12,1.254370798098286e-10,
819,3.000000000000406e-04,7.599999999997234e-03,-1.017116094902732e-20,9.925400794968748e-20,-1.578301287815108e-11,-9.632940440511022e-11,2.700118920499116e-11,9.697411026634439e-11,
820,2.000000000000541e-04,7.599999999995581e-03,-2.319536777260869e-19,-2.245314839593650e-19,3.796835048444928e-11,7.686023289204713e-11,-4.122401404380585e-11,9.116060471904532e-11,
821,1.000000000000610e-04,7.599999999993926e-03,1.479732454233351e-19,8.717744170300998e-19,-2.513219614624569e-10,-2.688556279197033e-10,2.110547041652856e-11,4.570769065973284e-11,
822,6.778974083465616e-17,7.599999999992273e-03,3.469923714368174e-19,7.553456930183797e-19,9.376208122450344e-13,-2.453549919868141e-12,3.664344545879314e-11,7.336530800930731e-11,
823,-9.999999999993909e-05,7.599999999990620e-03,9.435632313448266e-20,4.645942336749781e-21,3.300670873933769e-13,-5.891680877056189e-11,3.477253476716806e-11,9.136032506216038e-11,
824,-1.999999999999457e-04,7.599999999988965e-03,1.113168597584273e-19,-6.866014225327160e-20,2.126791784917331e-10,2.778701021464218e-10,-2.433221294966113e-11,8.135160032268609e-11,
825,-2.999999999999593e-04,7.599999999987311e-03,-1.036886734619101e-19,-3.030597239400491e-19,2.016715665791351e-10,2.437214583973368e-10,-3.486370309876702e-12,4.262408372824955e-11,
826,-3.999999999999797e-04,7.599999999985659e-03,-2.178749186520158e-19,-1.126917970734370e-19,1.171588989785482e-10,1.940554881288596e-10,5.708539696333226e-11,1.376519364513144e-10,
827,4.000000000000271e-04,7.466666666665744e-03,-2.791944280327418e-19,-2.265283643507377e-19,1.119562390834210e-10,1.891441176839905e-10,-3.734073107723530e-11,1.074024645545244e-10,
828,3.000000000000542e-04,7.466666666664099e-03,9.053919648997679e-20,-2.240196990998764e-19,-1.163983700077212e-10,-1.349973716225528e-10,7.196694989375353e-11,1.451305976323003e-10,
829,2.000000000000722e-04,7.466666666662453e-03,3.188436682108948e-21,-7.050951165592053e-20,-4.472280024677701e-11,-7.642578647976793e-11,-3.481812876642270e-11,7.651331713675717e-11,
830,1.000000000000814e-04,7.466666666660807e-03,4.478383016287433e-20,-2.351181487404055e-19,-1.474072666471651e-11,-5.146590415037251e-12,9.783002879935365e-12,2.179165050593241e-11,
831,9.038180360382286e-17,7.466666666659162e-03,1.022710010855744e-19,-3.991864070593552e-20,1.582836190697168e-10,1.677890280335800e-10,5.393445349310116e-11,1.082869054593779e-10,
832,-9.999999999991873e-05,7.466666666657516e-03,-3.264820946900619e-19,-5.947755395781230e-20,3.895826567032960e-11,4.004245582084092e-11,-4.238331942961786e-11,8.477357213055584e-11,
833,-1.999999999999276e-04,7.466666666655871e-03,-4.625097721312864e-20,-4.691823793278487e-19,8.713755226066859e-11,1.628745312887676e-10,3.008802307123553e-11,9.673286164299864e-11,
834,-2.999999999999458e-04,7.466666666654227e-03,-1.487720240646540e-19,4.073811044249194e-19,5.026214255939649e-11,7.003533868422458e-11,-7.155952292583299e-12,2.440921747712999e-11,
835,-3.999999999999729e-04,7.466666666652581e-03,-1.640105277609990e-19,-1.001136489303652e-19,2.512635472574082e-10,4.237943274534454e-10,-2.564760534937724e-11,1.799946353525096e-10,
836,4.000000000000339e-04,7.333333333332600e-03,1.539964588227086e-19,-4.959614030545642e-19,-1.080575466922715e-11,-3.089521506865190e-11,-1.756593347547737e-11,4.047016795862899e-11,
837,3.000000000000677e-04,7.333333333330963e-03,2.528800485420955e-20,-1.999289207974408e-19,2.193128153151209e-10,3.210734842554228e-10,1.440836720796285e-11,1.057621762520785e-10,
838,2.000000000000904e-04,7.333333333329325e-03,1.900378903719560e-19,8.634988446797355e-20,4.626953793384771e-11,9.521091664498581e-11,3.132830775334660e-11,7.950540872733519e-11,
839,1.000000000001017e-04,7.333333333327688e-03,1.374656663034289e-19,-2.236904709262639e-19,1.139900036327045e-10,1.853926434376307e-10,4.656864638931990e-11,1.173579663987328e-10,
840,1.129196562643653e-16,7.333333333326052e-03,2.686543134122798e-19,-6.990995982881193e-19,-2.324770633646074e-10,-3.598907282663126e-10,-1.957324009622690e-11,1.332917436120564e-10,
841,-9.999999999989843e-05,7.333333333324414e-03,1.377188122045628e-19,3.168755902307147e-19,-6.185340102380117e-11,-1.178538262616385e-10,2.350199323566814e-11,7.311239546763719e-11,
842,-1.999999999999095e-04,7.333333333322777e-03,9.569974028810493e-20,-5.248769558635049e-19,-6.062516010715241e-12,-1.517496365460831e-11,-1.871252235987890e-11,3.851844589723945e-11,
843,-2.999999999999322e-04,7.333333333321139e-03,1.150634889375894e-19,1.837019916136093e-19,-1.497543224789409e-10,-2.036237913253076e-10,3.129266155099111e-11,8.257628195534823e-11,
844,-3.999999999999661e-04,7.333333333319502e-03,2.320695820749585e-19,-5.394846869053789e-19,1.197247562022783e-11,5.490022031804270e-11,-2.128690438216217e-11,6.045924625350561e-11,
845,4.000000000000406e-04,7.199999999999452e-03,-7.247404461981461e-20,1.155336288490241e-19,-9.785429356778262e-11,-1.459629262902449e-10,1.117552400689512e-11,5.304724205592154e-11,
846,3.000000000000813e-04,7.199999999997825e-03,-1.106360465806071e-19,1.965426845945854e-19,-1.516802953270960e-10,-2.181901336037757e-10,-3.242199691939532e-11,9.288865444474485e-11,
847,2.000000000001083e-04,7.199999999996196e-03,-4.897409657038723e-20,1.590340907141152e-20,1.529673337183481e-10,2.751047679794902e-10,1.966428616134856e-13,1.221380674546428e-10,
848,1.000000000001220e-04,7.199999999994568e-03,1.746416869965162e-19,-8.891007333770486e-19,-2.123029368621218e-10,-3.109640105968699e-10,-5.307720925036708e-11,1.449233177846905e-10,
849,1.355117190335320e-16,7.199999999992939e-03,-1.739257134828005e-20,-3.124569306130120e-19,3.921741335290942e-12,-7.760047648845178e-11,1.222421690804337e-11,8.510932918876361e-11,
850,-9.999999999987805e-05,7.199999999991307e-03,-3.008002482463995e-19,-3.383834118069242e-19,-8.824244663038044e-11,-1.186185491836975e-10,3.785976079695876e-11,8.158525330438934e-11,
851,-1.999999999998916e-04,7.199999999989681e-03,6.995246143231648e-20,-3.936942488768011e-20,-1.237775325693818e-11,2.166885589222063e-11,1.069805108323539e-11,4.021150062449349e-11,
852,-2.999999999999186e-04,7.199999999988050e-03,-1.387569984157091e-19,-1.037670842970378e-18,-6.280347092125874e-11,-8.295639770586045e-11,-7.763310623689652e-12,2.544044860738677e-11,
853,-3.999999999999593e-04,7.199999999986424e-03,1.542280921820322e-19,-2.917362109349894e-20,5.060679403457706e-11,1.571893245589513e-10,-3.413444501395582e-11,1.265720236016722e-10,
854,4.000000000000474e-04,7.066666666666310e-03,4.787776286078820e-20,-2.885855349844916e-19,-2.235292584769178e-10,-3.326577646595163e-10,1.502593461051782e-11,1.131907492038270e-10,
855,3.000000000000948e-04,7.066666666664690e-03,2.750877013082115e-20,8.771515173505393e-20,-3.228158060466218e-11,-1.007816958042123e-11,1.929045903123613e-11,4.451380347324391e-11,
856,2.000000000001265e-04,7.066666666663069e-03,3.228145345516537e-19,-1.255041512024066e-19,3.451449494214565e-11,3.701585920811767e-11,2.056264612188374e-11,4.120129227738328e-11,
857,1.000000000001423e-04,7.066666666661447e-03,-2.526433213139354e-20,-2.078858461458092e-19,1.003620637414669e-10,8.712424494655566e-11,5.277666151959560e-11,1.063801854250252e-10,
858,1.581986494927912e-16,7.066666666659827e-03,-6.677162017317082e-20,-1.609056308011580e-19,-2.793500171866350e-11,-1.752064521943423e-11,3.739891423770200e-11,7.551936153019963e-11,
859,-9.999999999985777e-05,7.066666666658205e-03,5.075028030383407e-20,-2.973060274682648e-19,1.098045784727528e-10,1.981203097722601e-10,3.403303988999148e-12,8.857763999527715e-11,
860,-1.999999999998734e-04,7.066666666656584e-03,1.000746025287795e-19,-3.203699688727298e-20,-1.622595040049166e-10,-2.251736835048578e-10,2.890207036845736e-11,8.543718551359158e-11,
861,-2.999999999999051e-04,7.066666666654964e-03,1.585343568747849e-19,8.500623200038992e-20,1.549713573394659e-10,2.177838649696931e-10,-3.224228830536106e-11,9.002039621919820e-11,
862,-3.999999999999526e-04,7.066666666653341e-03,5.391929193705052e-20,3.797806220992309e-19,-6.520871099633045e-11,-1.423548950822070e-10,2.601186020034802e-11,9.304838098184060e-11,
863,4.000000000000542e-04,6.933333333333166e-03,-1.593935352807190e-19,7.680988434631194e-19,-1.052994766619655e-10,-1.224714858773801e-10,1.619497222919421e-11,3.666042010822804e-11,
864,3.000000000001084e-04,6.933333333331553e-03,-5.785274409856709e-20,-5.405435011250972e-19,2.039036993416330e-10,3.269737022348938e-10,-2.127368775060324e-11,1.302171447014097e-10,
865,2.000000000001446e-04,6.933333333329940e-03,-8.458654446093448e-20,-3.656169322456509e-19,-1.379045090239213e-10,-1.625160770007907e-10,-3.178431147888299e-11,6.816670083718790e-11,
866,1.000000000001627e-04,6.933333333328328e-03,1.640461747562173e-19,2.637496533275168e-19,2.548599876091304e-10,4.025296048927342e-10,-2.835545693871707e-11,1.581848400495437e-10,
867,1.807229496261775e-16,6.933333333326717e-03,4.094639046506390e-20,1.371418661800988e-19,2.509724111149507e-11,-1.699327757011600e-11,-1.692797375731833e-11,5.401700607217028e-11,
868,-9.999999999983742e-05,6.933333333325103e-03,-1.278043915980035e-19,1.850909814138083e-19,5.714011271583846e-11,4.963737364550649e-11,-7.606094524540834e-12,1.696177435360125e-11,
869,-1.999999999998553e-04,6.933333333323491e-03,-1.264319882587919e-19,3.899534641577862e-19,-5.608673114478148e-11,-5.583713620921886e-11,-6.326978842943426e-12,1.265641903336300e-11,
870,-2.999999999998914e-04,6.933333333321878e-03,1.234735912089524e-19,2.515390281970507e-19,8.779234817902767e-11,1.450224652543526e-10,-7.778187726196767e-11,1.657569546717079e-10,
871,-3.999999999999458e-04,6.933333333320264e-03,-4.078378602627894e-20,1.338722183733891e-19,9.504072620996887e-11,1.377249958036338e-10,-9.710652405678091e-11,1.988483214118372e-10,
872,4.000000000000610e-04,6.800000000000023e-03,3.607521868334360e-20,-6.528599818207442e-20,-1.566542739282478e-10,-1.968626495789662e-10,-2.269413633899690e-12,4.046374210866081e-11,
873,3.000000000001219e-04,6.799999999998418e-03,1.152457352112493e-19,-5.046739442097716e-20,2.522407272817757e-10,3.209327486722755e-10,1.302491854951065e-11,7.346555530041574e-11,
874,2.000000000001625e-04,6.799999999996812e-03,-2.825973613321386e-19,2.093131101779900e-19,-8.214357436139540e-11,-1.288491218574951e-10,2.229812913195894e-11,6.457735220688822e-11,
875,1.000000000001830e-04,6.799999999995209e-03,6.844810352510722e-20,-7.361240824730696e-21,-9.517427431042363e-11,-8.096432767127155e-11,1.223823537754305e-11,2.830230033251951e-11,
876,2.032879073410321e-16,6.799999999993605e-03,6.339788958253957e-20,7.499190691068324e-20,1.117658399278923e-10,1.558781695722600e-10,-2.730372503143991e-11,7.019879791722413e-11,
877,-9.999999999981711e-05,6.799999999992000e-03,1.594959035634277e-20,-2.189203753028537e-19,-6.661820213040678e-11,-1.427457977535196e-10,-1.784173340706310e-11,8.407568387608293e-11,
878,-1.999999999998373e-04,6.799999999990397e-03,-1.289478184052504e-19,8.339110519624449e-19,1.448860002763443e-10,1.960077128750310e-10,-1.943304897549613e-12,5.126924257995326e-11,
879,-2.999999999998780e-04,6.799999999988791e-03,-8.384063384709576e-20,3.112873460288671e-19,-7.036491027293806e-11,-3.073697822016331e-11,5.955894104648383e-11,1.255366194904637e-10,
880,-3.999999999999390e-04,6.799999999987185e-03,2.487600046685791e-19,-9.645671996806199e-21,5.044777561110019e-11,1.065164333379396e-10,5.292210126923840e-11,1.197776673269920e-10,
881,4.000000000000677e-04,6.666666666666875e-03,1.504533389402258e-19,7.552586629632558e-19,1.065581278526334e-10,1.444579597717786e-10,-4.284570939601429e-12,3.885649819586640e-11,
882,3.000000000001356e-04,6.666666666665278e-03,-2.618443475409736e-19,4.208757481917295e-19,4.186105581264351e-11,4.989379333355324e-11,1.246502210397595e-12,8.410704080036019e-12,
883,2.000000000001807e-04,6.666666666663684e-03,6.717320216340224e-20,2.732345752915315e-19,-3.085216682637654e-11,-9.812064376892379e-12,-7.165554240553946e-11,1.448473435752725e-10,
884,1.000000000002033e-04,6.666666666662085e-03,-8.308043158289706e-20,2.803492676144028e-19,-1.348083261946109e-10,-2.558575857764009e-10,1.589590535602309e-13,1.210496770636849e-10,
885,2.258799701101988e-16,6.666666666660492e-03,-2.570000945455866e-19,2.904369270161253e-20,-1.360654142353085e-10,-1.783941464185549e-10,1.234895020498376e-11,4.900722245650811e-11,
886,-9.999999999979673e-05,6.666666666658896e-03,5.007967226864661e-20,1.921341687107560e-19,7.824873373062568e-11,1.715087793570292e-10,-3.027437876328168e-12,9.345639427358069e-11,
887,-1.999999999998192e-04,6.666666666657300e-03,-3.885641414340656e-21,1.905159234355419e-19,-4.069092248541328e-12,-3.032857428351023e-11,-1.408510383009459e-11,3.851130997983626e-11,
888,-2.999999999998644e-04,6.666666666655702e-03,-1.288216555502376e-19,2.833409086422792e-19,3.491969592494292e-11,4.241261671131883e-11,-6.166033274005525e-11,1.235480894080043e-10,
889,-3.999999999999322e-04,6.666666666654105e-03,-2.171367317153400e-20,2.328803206488297e-19,-8.863092792281785e-11,-1.043560220946033e-10,3.303664744439373e-11,6.791876680397097e-11,
890,4.000000000000746e-04,6.533333333333734e-03,-2.507278019393216e-19,-6.887333867118206e-20,-1.232327964231948e-10,-1.267370971128622e-10,4.384359363957958e-11,8.775718167907364e-11,
891,3.000000000001490e-04,6.533333333332146e-03,9.432340213887307e-20,3.220822150799633e-19,8.056149195276472e-12,7.056541378871953e-11,-5.260180011020411e-11,1.223732228036369e-10,
892,2.000000000001987e-04,6.533333333330556e-03,8.852533653719081e-20,-2.338071385069781e-19,4.514763779748736e-11,3.114481000421847e-11,4.978878060667403e-11,1.005572965199742e-10,
893,1.000000000002237e-04,6.533333333328968e-03,-5.403779205264570e-20,-3.888128342388372e-19,-4.558208420976489e-11,-6.982402588711837e-11,5.928428949782731e-13,2.427092060636992e-11,
894,2.485126904608337e-16,6.533333333327380e-03,1.038899581250472e-19,3.206430427390637e-19,-8.723310429897212e-11,-1.367153673959319e-10,-3.073315891957750e-12,4.986256555256443e-11,
895,-9.999999999977646e-05,6.533333333325791e-03,-8.285332164050533e-20,-3.325940961253120e-19,-1.768624886179545e-10,-2.538719216495226e-10,-1.094185723566198e-11,8.005841451656414e-11,
896,-1.999999999998011e-04,6.533333333324202e-03,1.633066794545828e-19,-9.906058703928004e-20,7.963437380620190e-12,4.424374244224739e-11,5.618864374951697e-11,1.180885908164089e-10,
897,-2.999999999998509e-04,6.533333333322616e-03,7.804468202653837e-20,4.809609231732042e-19,1.442316998566681e-10,1.620359515449739e-10,8.288265073015927e-11,1.667187048486486e-10,
898,-3.999999999999254e-04,6.533333333321028e-03,-9.668899729268693e-20,-2.270435359577143e-19,-1.918908062803877e-10,-3.079187684136075e-10,-5.450703041220720e-11,1.592060094789672e-10,
899,4.000000000000812e-04,6.400000000000589e-03,5.998596802891265e-20,-2.110872826373387e-19,-3.441594937237510e-11,-4.923209600879536e-11,-1.674727637589881e-11,3.662517256198065e-11,
900,3.000000000001627e-04,6.399999999999010e-03,-6.724985494448729e-20,-3.285112868907165e-19,-1.907797920792649e-10,-2.997784486139535e-10,3.333789821675671e-11,1.277746804199107e-10,
901,2.000000000002167e-04,6.399999999997430e-03,3.432040723758401e-20,-5.976617299158344e-19,4.944056858226445e-11,1.011467093077364e-10,2.106656890471928e-11,6.669877278025020e-11,
902,1.000000000002440e-04,6.399999999995848e-03,9.093093868773685e-20,4.313471312662508e-20,1.147780615752128e-10,1.432444154720388e-10,-8.355050107844994e-12,3.300849517014889e-11,
903,2.709692279584397e-16,6.399999999994270e-03,-1.388923789866274e-19,-7.914821897167653e-19,-9.164791567397214e-11,-1.479571316274055e-10,-5.400319911406116e-11,1.218035707994726e-10,
904,-9.999999999975613e-05,6.399999999992688e-03,3.462931104090327e-20,7.319866528808941e-19,-9.437611200765501e-11,-1.153131888598409e-10,2.648498247534492e-11,5.695768933157004e-11,
905,-1.999999999997831e-04,6.399999999991109e-03,5.662796985757752e-21,-5.582731842907728e-19,1.864244625605942e-10,2.904257288197650e-10,-8.581717406506209e-12,1.054080019642317e-10,
906,-2.999999999998373e-04,6.399999999989529e-03,1.496844478662748e-19,-2.753938554752318e-20,-2.641722338477339e-11,-4.398377760948195e-12,-2.189212741069755e-11,4.900908622766503e-11,
907,-3.999999999999186e-04,6.399999999987948e-03,8.941463164637147e-20,-2.514294199586794e-19,8.726740190857559e-11,9.279721201354188e-11,-1.013694138084516e-11,2.101449790101468e-11,
908,4.000000000000880e-04,6.266666666667446e-03,-8.952646956339026e-20,4.971640446633934e-19,4.560307450525857e-11,9.313446658363354e-11,6.897480795742915e-11,1.459086349876701e-10,
909,3.000000000001761e-04,6.266666666665874e-03,-4.548334907317668e-20,-9.224085604361886e-19,-1.858259455447119e-10,-2.505203101295319e-10,8.648013956969068e-11,1.846635290711361e-10,
910,2.000000000002348e-04,6.266666666664302e-03,6.591487817620883e-20,3.122706865415404e-19,-3.670464711365126e-11,-7.900257071745465e-12,1.492217979382948e-11,4.147744790707033e-11,
911,1.000000000002643e-04,6.266666666662729e-03,1.922881793068023e-19,3.941912674523809e-19,8.824614508291826e-11,2.047714478609916e-10,-2.928776823975413e-11,1.304194757748392e-10,
912,2.936426058905428e-16,6.266666666661157e-03,4.982885866356995e-19,4.565666924212268e-19,-7.659121081095902e-11,-1.363335780874986e-10,4.617783799403353e-11,1.099941877328878e-10,
913,-9.999999999973581e-05,6.266666666659586e-03,6.118535046367599e-20,1.200708261471592e-19,-7.082959311206963e-11,-1.571484882731591e-10,2.598770890272254e-11,1.007590974447555e-10,
914,-1.999999999997650e-04,6.266666666658014e-03,2.126901202622300e-19,5.325972412389380e-19,-1.311008911879023e-10,-1.383112731566921e-10,2.015986395053846e-11,4.095937091988507e-11,
915,-2.999999999998238e-04,6.266666666656440e-03,3.295735340090270e-19,-6.835452137358785e-19,-8.244311894563557e-11,-1.072339140664935e-10,4.005106341536173e-11,8.385066633921083e-11,
916,-3.999999999999119e-04,6.266666666654869e-03,2.766450483826569e-19,3.576301444017441e-19,1.231592256777606e-10,1.439443949352535e-10,7.143341005741970e-12,2.522166814387753e-11,
917,4.000000000000948e-04,6.133333333334298e-03,1.026233183561577e-19,1.126866152794443e-19,-7.286520688762479e-11,-1.353665024233835e-10,-1.036810174557327e-10,2.165766041526001e-10,
918,3.000000000001897e-04,6.133333333332733e-03,-2.701700980700718e-19,-2.005539306993605e-19,2.472858130959354e-10,3.642593650990835e-10,-4.878769340925043e-11,1.523278306187457e-10,
919,2.000000000002530e-04,6.133333333331171e-03,-6.758650551410150e-20,6.385477040462221e-19,-9.151650287609204e-11,-6.451961746836146e-11,-1.965683002130005e-11,4.769062473551033e-11,
920,1.000000000002846e-04,6.133333333329607e-03,9.720185096867390e-20,7.822595511499283e-19,-1.770427834132295e-10,-2.637976881365699e-10,9.624320320935865e-12,8.886463672415353e-11,
921,3.162346686597095e-16,6.133333333328045e-03,-4.894050657386701e-20,-2.281722690481576e-19,7.700466692773837e-11,2.411714420956933e-11,-2.574397408923297e-11,7.381123807993767e-11,
922,-9.999999999971543e-05,6.133333333326480e-03,-3.418788025516195e-19,-1.564375748823943e-19,2.710784378969288e-10,3.576766689217482e-10,2.995240335088947e-11,1.052988104519965e-10,
923,-1.999999999997469e-04,6.133333333324919e-03,-3.051743820584699e-19,-1.851998931543317e-19,-2.375533626419798e-10,-3.248712096979208e-10,-1.843224271953510e-11,9.478078234100066e-11,
924,-2.999999999998103e-04,6.133333333323355e-03,-2.065016215326290e-19,3.300781464062128e-20,1.137231168541884e-10,1.958452054213990e-10,-6.298383723560518e-11,1.503725122564812e-10,
925,-3.999999999999052e-04,6.133333333321789e-03,-2.200015368490162e-19,-2.637460700341747e-19,-4.728257871779931e-11,-8.971326884705915e-11,-5.648017393479733e-11,1.206664976522693e-10,
926,4.000000000001016e-04,6.000000000001156e-03,-3.976224753625052e-20,1.258026112484854e-19,1.687365437836985e-10,2.380263006150949e-10,2.640711902451811e-11,8.712298286017483e-11,
927,3.000000000002032e-04,5.999999999999601e-03,-2.093761403941153e-19,1.591082177105150e-19,2.297240455144124e-11,8.377903933427957e-11,1.803187935964065e-11,7.069682826390462e-11,
928,2.000000000002709e-04,5.999999999998044e-03,2.300332069079871e-19,1.030375410875307e-18,-9.841567275041217e-11,-9.489543394537624e-11,5.715430631612941e-11,1.143628042816207e-10,
929,1.000000000003050e-04,5.999999999996490e-03,1.127475922138865e-19,-3.025169243250134e-19,4.459937539488365e-10,6.280273123074792e-10,4.575470303797225e-11,2.037404912359876e-10,
930,3.388131789017201e-16,5.999999999994933e-03,1.857518282032070e-20,2.963350397831099e-19,-2.023410235391930e-10,-3.689328081186240e-10,2.963295734465466e-11,1.768198838742974e-10,
931,-9.999999999969511e-05,5.999999999993378e-03,-2.374164374858190e-19,1.197845969309968e-19,2.691320469058737e-10,3.576745336191766e-10,2.940952225379430e-11,1.062988802864880e-10,
932,-1.999999999997289e-04,5.999999999991822e-03,-2.402153980569963e-19,1.531813003694788e-19,2.138562898792879e-10,4.019347863293929e-10,-9.570948714275429e-12,1.890500808359978e-10,
933,-2.999999999997967e-04,5.999999999990267e-03,1.842401905151295e-19,7.639185127819159e-19,-1.707429121297757e-10,-2.592012282387049e-10,-3.386512282792814e-11,1.114103220775789e-10,
934,-3.999999999998984e-04,5.999999999988711e-03,-1.641165597098314e-19,-3.903726917198607e-19,4.817743736406512e-11,3.117298778241119e-11,6.143734729787726e-11,1.240457249467911e-10,
935,4.000000000001083e-04,5.866666666668013e-03,-4.111148499820991e-20,-6.885977706177302e-19,-1.978454539360605e-10,-2.782518914548539e-10,4.688306845196497e-11,1.235203773648307e-10,
936,3.000000000002168e-04,5.866666666666465e-03,1.150750749486928e-19,3.776986012392329e-19,-2.200440988564770e-10,-3.225063104099629e-10,3.024671521197456e-11,1.189872258727316e-10,
937,2.000000000002890e-04,5.866666666664917e-03,-5.552604968669939e-20,-8.747137008451756e-20,8.608922286973682e-11,1.420798298236166e-10,2.932682938577130e-11,8.108760542988310e-11,
938,1.000000000003253e-04,5.866666666663370e-03,1.939443575480477e-19,2.762222842945161e-19,-1.439922092813632e-10,-1.453937313577556e-10,4.371863653758884e-11,8.744850477254490e-11,
939,3.614865568338232e-16,5.866666666661823e-03,2.999576361471194e-19,-1.399825562123956e-18,1.491842693175514e-10,2.165454224995338e-10,4.370562999330927e-11,1.103551237163673e-10,
940,-9.999999999967477e-05,5.866666666660275e-03,1.252543195448389e-19,2.435989138570477e-19,-1.740303523435283e-11,-1.175245407492273e-10,-5.079618537650579e-12,1.006356098233484e-10,
941,-1.999999999997108e-04,5.866666666658728e-03,-1.561784020788876e-19,2.761649993117079e-19,5.559999035886630e-11,1.023623889100415e-10,-4.308068418425452e-11,9.803317457571627e-11,
942,-2.999999999997832e-04,5.866666666657180e-03,2.211263745575515e-19,-3.055408012612741e-19,-4.976267211550940e-13,7.619952656465908e-11,6.798670367086243e-12,7.789313831903849e-11,
943,-3.999999999998916e-04,5.866666666655633e-03,1.359839826033647e-19,1.846637119611715e-19,-7.523216482424639e-11,-1.031504468525554e-10,-1.369380335696887e-11,3.910896921333432e-11,
944,4.000000000001152e-04,5.733333333334869e-03,3.936218451787320e-19,1.152622654769961e-19,1.374599582513885e-10,2.285295656299886e-10,2.935338652356044e-11,1.083520123933955e-10,
945,3.000000000002303e-04,5.733333333333329e-03,1.686776125038234e-19,-7.444084129042306e-21,1.254765761565599e-11,-2.665038470628258e-11,-2.987981039626850e-11,7.146816633397212e-11,
946,2.000000000003071e-04,5.733333333331789e-03,1.925555152067281e-19,-7.946824301768183e-20,-3.153144207038800e-11,-3.315068285160527e-11,-1.208425698503548e-11,2.422269613872644e-11,
947,1.000000000003456e-04,5.733333333330251e-03,2.484103259782996e-19,1.295970567389110e-19,-7.798341010208256e-11,-1.944017027540163e-10,3.649204954060863e-11,1.374041396126341e-10,
948,3.840244094943657e-16,5.733333333328712e-03,-2.237004129076233e-19,2.412603289613976e-19,1.751813446015293e-10,1.546566562148398e-10,-7.267393055583421e-13,2.057608887625813e-11,
949,-9.999999999965446e-05,5.733333333327172e-03,-3.267101473173650e-19,1.769072950168022e-19,2.870456739846339e-11,1.126530155927745e-10,2.499009808293479e-11,9.770036828493405e-11,
950,-1.999999999996927e-04,5.733333333325631e-03,9.833620199838269e-20,-4.861915803115849e-19,-7.203488227781988e-11,-4.071055905331567e-11,-2.041996361558860e-11,5.146953352927402e-11,
951,-2.999999999997696e-04,5.733333333324091e-03,1.044538086329671e-19,7.412343415512796e-19,1.022152474191776e-10,1.395481524768776e-10,1.384450026222482e-11,4.648038887628001e-11,
952,-3.999999999998849e-04,5.733333333322554e-03,1.189583754882470e-20,-2.410961005649353e-19,-9.918281705134448e-11,-1.743122423545918e-10,-1.793449212370857e-11,8.325271513492927e-11,
953,4.000000000001220e-04,5.600000000001721e-03,-1.360693697564717e-19,-2.211756929957077e-20,-9.174461201747193e-11,-8.915616026956938e-11,-5.327853010067478e-11,1.065884945067021e-10,
954,3.000000000002440e-04,5.600000000000190e-03,8.706764195258712e-20,-4.333762690029090e-19,1.971452650504620e-10,3.414821258070022e-10,1.051307829926806e-11,1.458603052045314e-10,
955,2.000000000003251e-04,5.599999999998657e-03,4.290974251437006e-20,-4.977833023547730e-19,-7.263048241614430e-11,-1.272246194737598e-10,-2.161928300239497e-11,6.964261189254954e-11,
956,1.000000000003660e-04,5.599999999997130e-03,4.669805338641784e-20,-8.974385489983295e-20,1.119304826840978e-10,1.534246196523968e-10,-3.165373261158414e-11,7.569411176390550e-11,
957,4.066435773178445e-16,5.599999999995598e-03,-5.197801406382129e-20,3.928600714004142e-19,-1.912317397568850e-10,-2.883465713032480e-10,3.186131078342576e-11,1.161544790597015e-10,
958,-9.999999999963410e-05,5.599999999994066e-03,-1.846443896301639e-20,1.977787558211970e-19,-1.011908252013016e-10,-1.896571103679158e-10,-5.343362982552077e-11,1.387331784271659e-10,
959,-1.999999999996747e-04,5.599999999992536e-03,-2.461107413528963e-19,2.871200265439337e-19,4.820397533837441e-11,8.549120135253770e-11,-1.459625686948692e-11,4.735546517807075e-11,
960,-2.999999999997561e-04,5.599999999991004e-03,5.065238666986971e-20,-2.407796446519128e-19,2.080659989035128e-10,3.915868130928925e-10,-3.979084945737902e-11,2.000328374114912e-10,
961,-3.999999999998780e-04,5.599999999989475e-03,1.052816712698758e-19,-2.684892016935269e-19,-7.772001235371818e-11,-1.261778532327990e-10,4.439312394687628e-11,1.011491975139358e-10,
962,4.000000000001287e-04,5.466666666668579e-03,7.145497361759989e-20,1.353218312288372e-19,-7.416818339424588e-11,-1.257375730654095e-10,4.133294491529383e-11,9.743229081028105e-11,
963,3.000000000002574e-04,5.466666666667056e-03,7.547388667350551e-21,-5.069305003515735e-20,-3.743009689988544e-11,-5.095123608736870e-11,-7.037398530886265e-12,1.951720054867952e-11,
964,2.000000000003432e-04,5.466666666665532e-03,1.039701320466051e-19,-1.375256543886046e-19,2.466184914384500e-10,4.113687598503956e-10,-1.058019078139001e-11,1.661036203389034e-10,
965,1.000000000003863e-04,5.466666666664009e-03,1.575430054070179e-19,-4.391302358085029e-20,-7.628640462420650e-11,-1.124055559597873e-10,1.455945490071160e-11,4.639508595989450e-11,
966,4.291949825055430e-16,5.466666666662486e-03,1.158358771350739e-19,-6.560958032802555e-20,1.482916787423393e-11,4.667182203909058e-11,1.985810267697896e-11,5.090512343546982e-11,
967,-9.999999999961377e-05,5.466666666660963e-03,3.185103013712801e-19,3.337697924801152e-19,-1.518314213468117e-11,2.666361536647897e-11,-4.906921312169209e-11,1.066878710017641e-10,
968,-1.999999999996566e-04,5.466666666659441e-03,3.605395998525962e-19,5.458680782048654e-19,-4.455445903803088e-11,-1.015041725983406e-10,1.161378316464826e-11,6.150438774740543e-11,
969,-2.999999999997425e-04,5.466666666657917e-03,1.507939111577566e-19,1.396032409992276e-19,1.543507823768021e-10,1.551723563539382e-10,4.444244908735832e-11,8.888869504796237e-11,
970,-3.999999999998712e-04,5.466666666656394e-03,3.367121564104791e-21,-1.778847382439029e-19,-1.315775276135623e-10,-1.889056181060604e-10,4.209489399794287e-12,5.794298200424259e-11,
971,4.000000000001354e-04,5.333333333335435e-03,-3.029404312744617e-20,9.476469787465643e-20,-5.176377335553507e-11,-2.387708148166463e-11,8.535025634700301e-12,3.269639481667905e-11,
972,3.000000000002710e-04,5.333333333333920e-03,7.062961514557600e-20,3.338224762374832e-19,6.426329094465853e-13,3.880031489813857e-11,-2.112041239968687e-11,5.692359769446707e-11,
973,2.000000000003614e-04,5.333333333332404e-03,1.050657297521249e-19,-4.797100233020463e-20,3.847102938573942e-12,-1.360822666941235e-11,-8.258577527413137e-11,1.660913292205248e-10,
974,1.000000000004066e-04,5.333333333330890e-03,-6.466603379833569e-20,-4.031995502185007e-19,-2.823746318046162e-11,-8.066321993705572e-11,-5.839492241582610e-13,5.243876388977102e-11,
975,4.518141503290218e-16,5.333333333329375e-03,-7.990625872738888e-20,-3.197662589900298e-20,5.202659895129224e-12,-1.310106774060330e-11,-2.737793600714861e-11,5.773414904031387e-11,
976,-9.999999999959346e-05,5.333333333327859e-03,-1.774329564220760e-19,6.473054139609732e-19,-1.646544302973489e-10,-2.640218127491069e-10,-5.333576744579625e-11,1.457830341687337e-10,
977,-1.999999999996385e-04,5.333333333326345e-03,-1.155604640284336e-19,5.608958351940501e-19,-2.129524506386106e-11,-1.784352482412933e-11,-1.185814968981539e-11,2.396616842295925e-11,
978,-2.999999999997289e-04,5.333333333324830e-03,-5.795073288454385e-20,4.590924185420009e-19,1.581319975513226e-10,2.510842434594996e-10,2.481246228014626e-12,9.308461930281692e-11,
979,-3.999999999998644e-04,5.333333333323314e-03,-1.212942281371355e-20,-1.330565018305263e-19,-4.550239363291751e-11,-3.236361590646238e-11,-5.202731414204653e-12,1.676010551334930e-11,
980,4.000000000001422e-04,5.200000000002288e-03,-1.595007030416462e-19,1.022046103536406e-19,6.095242254611675e-11,1.070140600590958e-10,-2.102003676712311e-11,6.236218592337754e-11,
981,3.000000000002845e-04,5.200000000000782e-03,-1.838053713557887e-19,2.094731834480669e-19,-1.486218224836356e-10,-1.428700230687016e-10,-1.964919939551195e-11,3.971709133418484e-11,
982,2.000000000003793e-04,5.199999999999275e-03,2.019065819369099e-19,-5.712411617242044e-20,3.190184994488985e-11,9.740263196646133e-11,-2.847784517678644e-11,8.680036353086027e-11,
983,1.000000000004269e-04,5.199999999997769e-03,6.138318813668440e-20,-2.667657150651140e-19,5.252479782505040e-11,4.862618208782764e-11,1.741995031845270e-11,3.505735131261290e-11,
984,4.743791080438764e-16,5.199999999996261e-03,1.994180178707405e-20,-2.603628879707552e-19,-1.126912210773129e-10,-1.767482910091131e-10,-7.698807713967848e-12,6.588167248267264e-11,
985,-9.999999999957313e-05,5.199999999994756e-03,4.499587620133753e-20,-1.723622718656244e-19,1.826018389476722e-11,3.144435458845774e-11,2.265753682889440e-11,4.719404896267318e-11,
986,-1.999999999996204e-04,5.199999999993250e-03,-4.781442950146002e-21,-2.816612901578901e-19,2.678471438171905e-11,2.766897316904259e-12,4.029566109381318e-11,8.409409461138579e-11,
987,-2.999999999997153e-04,5.199999999991744e-03,-2.232715029717641e-19,3.560032151541125e-19,9.348495181392646e-11,1.069052007066814e-10,4.391476216961852e-11,8.884890784922526e-11,
988,-3.999999999998577e-04,5.199999999990236e-03,-2.603416435635273e-19,-7.872991890663588e-19,-3.433761252311747e-11,-2.874220073040424e-11,-1.991315013299373e-11,4.021744429978895e-11,
989,4.000000000001489e-04,5.066666666669143e-03,-3.021751225424100e-20,1.412839209012005e-20,-7.215434148917595e-12,5.858809541074788e-12,8.425354045736664e-11,1.690135265784067e-10,
990,3.000000000002982e-04,5.066666666667645e-03,2.127643147581824e-20,3.330675542963222e-20,-1.076539855133730e-10,-1.545637349777981e-10,-2.598731449045875e-11,7.001347479249380e-11,
991,2.000000000003975e-04,5.066666666666147e-03,5.891641845790367e-21,-4.328674916843854e-19,4.429739054346837e-11,8.895167222494140e-11,1.666709030036751e-11,5.572407440963695e-11,
992,1.000000000004473e-04,5.066666666664647e-03,6.571422690346664e-20,5.110762316426946e-19,-2.323686995108804e-11,-2.637631044506618e-11,-3.695726620538285e-11,7.398117455216131e-11,
993,4.969576182858870e-16,5.066666666663150e-03,8.389438735559316e-20,-2.859271866548804e-19,8.636535577961092e-11,1.456289513279208e-10,1.926344884438426e-11,7.068589394521716e-11,
994,-9.999999999955278e-05,5.066666666661652e-03,1.565544729516958e-19,-1.202475041242512e-19,-2.539728119442509e-11,-1.129657908372153e-10,2.551374316603803e-11,1.013511136713833e-10,
995,-1.999999999996024e-04,5.066666666660152e-03,-3.226537036469804e-19,1.235537285235717e-19,1.277333415525414e-10,1.552254323025553e-10,-1.222936788452094e-11,3.679734785588243e-11,
996,-2.999999999997017e-04,5.066666666658656e-03,-3.058815962180734e-20,-1.483979582484220e-19,-8.758522933314473e-11,-8.634941766424164e-11,-5.257040534951202e-11,1.051480732345058e-10,
997,-3.999999999998509e-04,5.066666666657158e-03,-4.882499104590616e-20,-1.258662970635750e-19,-6.263619736379695e-11,-1.155802850607430e-10,-2.442182652165508e-11,7.203317891553289e-11,
998,4.000000000001558e-04,4.933333333336001e-03,-1.151418186524850e-19,5.650555745859071e-20,-1.509100247262241e-11,-2.228758162861388e-11,-1.112440199573844e-11,2.338375569919444e-11,
999,3.000000000003116e-04,4.933333333334510e-03,-3.344180758764234e-20,2.324825240340140e-19,1.425164115384465e-11,1.872408515890989e-11,-3.691188983420571e-11,7.395913195751150e-11,
1000,2.000000000004156e-04,4.933333333333020e-03,-1.627919526597821e-19,5.065248852694244e-19,2.524109177167932e-10,3.797263231250255e-10,-1.199649263931320e-11,1.295564579511301e-10,
1001,1.000000000004676e-04,4.933333333331530e-03,-1.960333101670624e-20,2.109894776447660e-19,-1.177807510148882e-10,-1.331380681134284e-10,7.097586935971332e-11,1.427800522269602e-10,
1002,5.195361285278977e-16,4.933333333330040e-03,9.238386165986213e-20,-2.493543452380371e-19,-7.101415851248399e-11,-9.970862155069197e-11,-2.562685132817624e-12,2.914861282138383e-11,
1003,-9.999999999953244e-05,4.933333333328548e-03,-2.406411521969452e-20,-9.601562919381157e-20,-1.357158433484782e-11,-3.650229437159520e-11,2.995915626555532e-11,6.415622837546825e-11,
1004,-1.999999999995843e-04,4.933333333327058e-03,-8.386766385114375e-21,3.762983816765224e-20,7.713529815063462e-11,1.208065660526248e-10,-8.692225938161418e-11,1.792459102579076e-10,
1005,-2.999999999996882e-04,4.933333333325567e-03,1.290831220430482e-19,-3.010458962453645e-19,7.410656623533894e-11,1.176509013669761e-10,-3.497327250708885e-11,8.239313248976955e-11,
1006,-3.999999999998441e-04,4.933333333324077e-03,8.337762983279928e-21,7.068269951280887e-19,2.672908428575921e-12,2.858255403977089e-12,2.132274597826400e-11,4.264589473461173e-11,
1007,4.000000000001625e-04,4.800000000002858e-03,-6.171926511271363e-20,3.501450263386740e-19,-1.272657418358554e-10,-1.222314231494724e-10,-3.166798370231032e-12,8.090662043792004e-12,
1008,3.000000000003253e-04,4.800000000001375e-03,7.977265337868542e-20,-1.930126687028345e-19,-6.078379526107058e-11,-8.302968237499081e-11,4.929620606564698e-11,1.010709811140280e-10,
1009,2.000000000004336e-04,4.799999999999893e-03,-6.482094371398304e-20,-4.813431262231463e-20,1.019433084605333e-10,1.510469085490051e-10,3.238727533017532e-11,8.128287614804793e-11,
1010,1.000000000004879e-04,4.799999999998410e-03,6.411948871614240e-20,1.472771922244903e-19,1.493354719911715e-11,3.810616919004290e-11,6.040315025783663e-13,2.320409072036145e-11,
1011,5.421552963513765e-16,4.799999999996928e-03,1.340895288863223e-20,-7.584547932727873e-19,-5.702086292687278e-11,-9.522471945778777e-11,-1.054462013733836e-11,4.363817948995791e-11,
1012,-9.999999999951213e-05,4.799999999995445e-03,4.026665479740292e-20,-3.088172739324873e-19,-2.914320776197029e-11,-6.455946275678306e-11,-2.651034817069100e-11,6.376131553208920e-11,
1013,-1.999999999995662e-04,4.799999999993964e-03,-1.078322160359788e-19,-2.463945499981637e-20,-1.157653459598436e-10,-1.636711304415641e-10,2.355950180643990e-11,6.719497517135959e-11,
1014,-2.999999999996747e-04,4.799999999992481e-03,4.953226300477241e-20,3.597426187732339e-20,3.951977762142497e-12,3.718034865648250e-12,-1.646395598332627e-11,3.292874300307316e-11,
1015,-3.999999999998373e-04,4.799999999991000e-03,-1.529746778504515e-19,-9.861076713621423e-20,1.272188466523412e-13,-6.726047230964032e-11,4.261183801859369e-11,1.086470242421179e-10,
1016,4.000000000001692e-04,4.666666666669711e-03,-5.368904932040440e-20,1.335404578352501e-21,-8.359525550885050e-11,-1.085275677878446e-10,-1.591495950167185e-11,4.043221412854731e-11,
1017,3.000000000003387e-04,4.666666666668236e-03,1.228382214734096e-19,4.869052462428987e-19,-6.314840847273578e-11,-7.934138843750961e-11,-1.408427691383238e-11,3.249122996874101e-11,
1018,2.000000000004517e-04,4.666666666666763e-03,7.948256184213017e-20,1.702742875400726e-19,7.930766298049875e-11,1.042848727280429e-10,2.774223867469910e-11,6.084725329469441e-11,
1019,1.000000000005082e-04,4.666666666665289e-03,-2.195282367440538e-20,-3.476238805278465e-20,-2.093772305441245e-10,-3.312175415998969e-10,1.679770492720371e-11,1.263871550492889e-10,
1020,5.646931490119189e-16,4.666666666663814e-03,7.118738144028459e-22,-1.158837417495537e-19,8.582155451623393e-11,1.395465893269067e-10,2.301768907203740e-11,7.075051523682326e-11,
1021,-9.999999999949180e-05,4.666666666662342e-03,2.567412013971220e-20,-1.212792149765184e-19,4.647373990217488e-11,9.366496053290099e-11,9.784415524667777e-12,5.108767418130626e-11,
1022,-1.999999999995482e-04,4.666666666660869e-03,6.608523308698768e-20,4.816585209156297e-19,2.339428964937237e-13,9.543405026015083e-12,2.266612777674891e-11,4.627828301383519e-11,
1023,-2.999999999996612e-04,4.666666666659394e-03,1.273091367379786e-19,-4.129243249676432e-19,1.403113122489649e-10,1.772735233558627e-10,1.401378524758546e-11,4.638695676343363e-11,
1024,-3.999999999998306e-04,4.666666666657920e-03,-1.537211818537894e-20,1.646926062781842e-19,-1.005009500983466e-10,-1.748475790615946e-10,-3.561666782804376e-11,1.029641167926560e-10,
1025,4.000000000001760e-04,4.533333333336565e-03,1.143938910083920e-19,-3.050574481193019e-20,6.145666459737022e-11,4.301910278488600e-11,7.801606790780586e-12,2.415375663661849e-11,
1026,3.000000000003524e-04,4.533333333335100e-03,-1.659418561022655e-19,-3.992114538510380e-19,1.614305331226937e-10,2.396826792295624e-10,-6.481950048449763e-11,1.514254567190401e-10,
1027,2.000000000004698e-04,4.533333333333636e-03,-1.291766452015133e-20,-2.203240492440611e-19,-1.579164141490729e-10,-2.231052025011910e-10,1.921007756195877e-11,7.566826578271200e-11,
1028,1.000000000005286e-04,4.533333333332170e-03,-8.297523719015811e-21,-5.111749726700131e-20,6.993074993695875e-11,9.074566012261937e-11,-1.258306565040817e-11,3.265876070347813e-11,
1029,5.873123168353978e-16,4.533333333330704e-03,-3.974284771706960e-20,-8.538628021428483e-20,-7.869612472680362e-11,-1.126843196709135e-10,3.002763761412837e-11,6.900603943351976e-11,
1030,-9.999999999947150e-05,4.533333333329238e-03,4.274068379991022e-20,3.152294355708596e-20,-1.299377153816323e-11,-2.585477655085944e-11,-4.294797491399782e-11,8.685343773731779e-11,
1031,-1.999999999995300e-04,4.533333333327771e-03,-6.088916529565139e-20,-2.857605495387445e-19,7.362331447958302e-11,1.046396285634756e-10,2.445150551248640e-11,5.790955211931179e-11,
1032,-2.999999999996475e-04,4.533333333326308e-03,-1.916804047585695e-20,-2.677333645405621e-20,1.629999009091485e-11,4.832507435361536e-11,4.276107648507141e-11,9.132165499311528e-11,
1033,-3.999999999998239e-04,4.533333333324842e-03,-5.690221178091667e-21,-1.652062031341459e-19,2.022037769861895e-11,3.081609664440676e-11,3.696420337131919e-11,7.468385758303535e-11,
1034,4.000000000001829e-04,4.400000000003423e-03,5.059593734121443e-20,-4.472093796317755e-20,2.528262230598450e-10,3.175630637343441e-10,7.741734146953363e-12,6.656272478590312e-11,
1035,3.000000000003658e-04,4.400000000001966e-03,-1.939094849072098e-19,2.128784345818342e-19,5.368227264469326e-11,3.757453093557826e-11,-9.987969827188790e-12,2.566120628581005e-11,
1036,2.000000000004879e-04,4.400000000000509e-03,-1.488900917407634e-19,-2.138771954620717e-19,-7.858776087307772e-11,-8.096005706612660e-11,-3.027208082380660e-11,6.059062055169817e-11,
1037,1.000000000005489e-04,4.399999999999050e-03,-3.045951965832225e-20,-2.222433781759176e-19,2.138353296554477e-12,5.838600820563474e-12,-7.601548985504921e-12,1.564691725724458e-11,
1038,6.099179321317205e-16,4.399999999997592e-03,-1.272380478324788e-19,-2.443054894200682e-19,6.454779524655602e-11,1.396873249100579e-10,-1.729030903961391e-11,8.271498089701584e-11,
1039,-9.999999999945118e-05,4.399999999996135e-03,1.972322793646616e-19,1.049994646569947e-19,-1.657747672837470e-11,1.764757798978544e-11,4.399100227855177e-11,9.440438282382468e-11,
1040,-1.999999999995120e-04,4.399999999994678e-03,5.974848794627819e-20,1.406422737323058e-19,8.087617253805156e-11,1.046491607711310e-10,-3.698056803371859e-11,7.768786660680088e-11,
1041,-2.999999999996339e-04,4.399999999993219e-03,7.880054497409200e-20,3.434902484350278e-19,-3.463715710735672e-11,-5.792952438593616e-11,1.679786456141266e-11,4.088040348057357e-11,
1042,-3.999999999998170e-04,4.399999999991760e-03,3.956308148395593e-20,1.893321403206844e-19,1.886193808359247e-10,2.532075168695886e-10,-1.400800384806855e-11,7.040258520489916e-11,
1043,4.000000000001896e-04,4.266666666670280e-03,1.221296386515513e-20,2.597268788595404e-19,-1.727211793515672e-11,-3.016606682987594e-11,-2.332570194809592e-11,4.840048970398186e-11,
1044,3.000000000003795e-04,4.266666666668831e-03,1.367298426270906e-19,2.122038120568922e-19,-3.353333038893468e-11,-3.648052250111256e-11,1.894573603698371e-11,3.800591529325844e-11,
1045,2.000000000005059e-04,4.266666666667380e-03,3.793154075771891e-20,-2.891889036511396e-20,-9.784874588896816e-11,-1.969423401558090e-10,-5.335302545924181e-12,9.966645492715913e-11,
1046,1.000000000005692e-04,4.266666666665931e-03,-9.852569572139040e-20,-1.113082987217674e-19,1.796203492258865e-10,2.695593058354537e-10,-2.975331375468531e-11,1.078427310186301e-10,
1047,6.325099949008872e-16,4.266666666664481e-03,-2.413103977437742e-20,-9.119482577414042e-20,3.878935230898458e-11,8.049644187827988e-11,2.684584055262434e-11,6.798733661682106e-11,
1048,-9.999999999943081e-05,4.266666666663031e-03,2.533449554755682e-20,-4.586915074715321e-21,4.631230009982735e-11,9.567296868286060e-11,3.494765750180077e-11,8.556769637203476e-11,
1049,-1.999999999994939e-04,4.266666666661582e-03,7.864002983650537e-20,1.537508151356477e-19,-6.094231818586220e-11,-1.052280412191046e-10,2.525176992570733e-11,6.717017792220360e-11,
1050,-2.999999999996204e-04,4.266666666660132e-03,-7.916976697723203e-20,2.750198954304317e-19,-2.717718020300422e-11,-1.103337953483477e-10,2.110285364391144e-12,8.326365269256094e-11,
1051,-3.999999999998103e-04,4.266666666658685e-03,-3.047873437686071e-19,2.567079860453883e-19,3.016869763113281e-11,2.430085138108730e-11,-2.316032997250246e-11,4.669084661210327e-11,
1052,4.000000000001964e-04,4.133333333337133e-03,-3.632849026433990e-20,-8.941110603210367e-20,-3.006489045884819e-11,-5.450092974427262e-11,-8.476468391501968e-12,2.974091594970360e-11,
1053,3.000000000003929e-04,4.133333333335690e-03,-1.036229317332184e-19,2.587264840287444e-19,6.275857345270681e-11,9.823907640768149e-11,-1.841817299391536e-11,5.114472089740193e-11,
1054,2.000000000005240e-04,4.133333333334250e-03,7.884847436537040e-20,-6.042020931690728e-20,-2.889731127894979e-11,-3.948107663821143e-11,1.196084643695738e-11,2.615843036448883e-11,
1055,1.000000000005896e-04,4.133333333332809e-03,-1.018132728689829e-19,-1.338358168240416e-19,1.155324707146344e-10,1.416214762382854e-10,-2.791716202142671e-11,6.162879157127333e-11,
1056,6.549936374528054e-16,4.133333333331369e-03,-1.212873565062782e-19,-4.651228849178454e-20,1.547763453879311e-11,8.595752399555580e-11,4.480879615360906e-11,1.140119628318899e-10,
1057,-9.999999999941048e-05,4.133333333329927e-03,2.634352595613123e-19,3.474719889190385e-19,-3.534880408079410e-11,-1.990304577273844e-11,2.770038100221681e-11,5.751361473931861e-11,
1058,-1.999999999994758e-04,4.133333333328488e-03,6.850314056942617e-20,-9.454597666867711e-20,4.037330448322132e-11,4.550666423806109e-11,-2.465745901021140e-11,4.958137272941956e-11,
1059,-2.999999999996070e-04,4.133333333327046e-03,1.147429230564448e-19,-4.401398980696694e-20,5.435592355597955e-11,8.421447674392968e-11,4.007669594001546e-11,8.553420034320456e-11,
1060,-3.999999999998035e-04,4.133333333325604e-03,5.764007500887630e-20,-6.350852532023258e-20,-8.864288150934511e-11,-1.253732850223204e-10,-3.321011235234306e-11,7.589972853737343e-11,
1061,4.000000000002033e-04,4.000000000003988e-03,-6.187940297775810e-22,-1.026782152237314e-19,-1.832215556814404e-10,-3.124456420948767e-10,8.011251726727998e-12,1.302136134446136e-10,
1062,3.000000000004066e-04,4.000000000002555e-03,-2.216887848092179e-19,3.640205369207790e-20,6.301777724983699e-11,8.659375099728789e-11,7.670103310346213e-12,2.812736171961443e-11,
1063,2.000000000005420e-04,4.000000000001122e-03,-1.065823690265423e-19,-4.703704803047299e-19,-4.807519334175236e-11,-3.885495399673186e-11,-3.949297786914118e-11,7.952228629427957e-11,
1064,1.000000000006099e-04,3.999999999999690e-03,7.772566741679341e-21,1.043087056707163e-19,8.748803749095912e-11,1.326367429397307e-10,1.834040572983599e-11,5.817119160752979e-11,
1065,6.776805679120645e-16,3.999999999998257e-03,-7.903834934013925e-20,-4.370611573027437e-19,-5.390348037967582e-11,-5.151417841997283e-11,-1.455342053576017e-12,3.765746383689152e-12,
1066,-9.999999999939017e-05,3.999999999996823e-03,1.462439247284806e-19,4.150453278134084e-20,-5.533708810919190e-11,-5.663316320941437e-11,9.723684836056481e-12,1.949051045584070e-11,
1067,-1.999999999994577e-04,3.999999999995390e-03,3.555285748465460e-20,-6.917632716191954e-19,1.631350682741320e-11,-1.107185987275997e-11,1.956117771870698e-11,4.775475896991112e-11,
1068,-2.999999999995934e-04,3.999999999993958e-03,-3.922285222459680e-20,2.352260557282188e-21,1.158883708552610e-11,3.024148680157798e-11,-3.853963349875015e-11,7.930406510577922e-11,
1069,-3.999999999997967e-04,3.999999999992525e-03,1.713097967362909e-20,-1.711282438986794e-19,-6.778307385513462e-11,-1.066906083018019e-10,-7.191670014013693e-12,4.148104033266837e-11,
1070,4.000000000002100e-04,3.866666666670523e-03,4.572395318306691e-20,-5.661773219215468e-19,5.082672469588649e-11,8.569412624719436e-11,7.212517271360534e-12,3.773350384603638e-11,
1071,3.000000000004200e-04,3.866666666669137e-03,4.080175091570318e-20,1.994478489934492e-19,-5.930130553416143e-11,-9.806917204896358e-11,4.278451108189590e-13,3.877730882700507e-11,
1072,2.000000000005601e-04,3.866666666667752e-03,-3.369796160230500e-20,3.136256200428311e-20,3.675188930715768e-11,2.498275742635754e-11,3.327144343494814e-11,6.757564841129888e-11,
1073,1.000000000006302e-04,3.866666666666367e-03,-1.007337612202188e-19,2.178137847574134e-19,-6.591822266719660e-11,-1.209473016357767e-10,-1.473129215393470e-11,6.241989591651479e-11,
1074,7.002997357355434e-16,3.866666666664981e-03,-1.047191277028584e-19,2.283923698649414e-19,4.973797786393460e-11,1.027840235068937e-10,3.702989189498839e-12,5.356054027084752e-11,
1075,-9.999999999936983e-05,3.866666666663597e-03,7.206538610620456e-20,-4.991347510659780e-19,-5.670090019973248e-11,-7.317720055707857e-11,4.392453054207272e-12,1.867198566835198e-11,
1076,-1.999999999994397e-04,3.866666666662211e-03,1.283616818527937e-23,1.706226043447966e-19,7.812521333651689e-11,1.261895207430280e-10,3.230922455721518e-12,4.849673273661998e-11,
1077,-2.999999999995798e-04,3.866666666660825e-03,8.265402957229529e-20,-1.891530129970483e-19,-1.026852685147376e-10,-1.101197750960654e-10,-3.343329318826708e-11,6.727861667542154e-11,
1078,-3.999999999997900e-04,3.866666666659442e-03,1.032494376155373e-19,-7.702970036950103e-20,-7.339945540399496e-12,-7.329559211714759e-11,-2.669510080972523e-12,6.617138695574212e-11,
1079,4.000000000002168e-04,3.733333333337058e-03,4.899176629973297e-20,-4.038142155585969e-19,-2.183485237600919e-11,-4.445250109201698e-11,3.772216792512828e-12,2.384274547025975e-11,
1080,3.000000000004337e-04,3.733333333335719e-03,-1.016180678690760e-19,-3.412992057128706e-20,-1.521893034821789e-10,-2.626616991111062e-10,-5.793083978656493e-12,1.110783033896778e-10,
1081,2.000000000005782e-04,3.733333333334383e-03,-1.547173541279079e-19,5.621935801252129e-20,1.047622907286866e-10,1.962689753208219e-10,-1.637944694705664e-11,9.719371612511943e-11,
1082,1.000000000006505e-04,3.733333333333044e-03,7.964427350555769e-20,-4.086627797444421e-20,-6.537705220507631e-11,-4.869363300184685e-11,-1.303285184765752e-11,3.094765557263823e-11,
1083,7.228443646596638e-16,3.733333333331707e-03,1.003173730329847e-19,5.193553023776113e-20,9.211025378814546e-11,1.346171454640936e-10,2.503194221683836e-11,6.567517312150258e-11,
1084,-9.999999999934950e-05,3.733333333330369e-03,7.284034169882010e-20,3.558173440927275e-20,1.575988728008056e-11,1.717015998914316e-11,6.311438948274626e-12,1.270141391755731e-11,
1085,-1.999999999994216e-04,3.733333333329031e-03,2.302937512274897e-20,-8.333847729328937e-20,2.005680259370111e-11,2.827118863747030e-11,7.301801993197312e-12,1.675533907348672e-11,
1086,-2.999999999995662e-04,3.733333333327694e-03,7.468084203971429e-20,1.280502473723360e-19,3.068838229906926e-11,4.170737564559451e-11,-1.751986364444850e-11,3.673146747478298e-11,
1087,-3.999999999997831e-04,3.733333333326356e-03,7.009283372623871e-20,-2.145374083771821e-19,-9.496423858698036e-11,-1.320127556008226e-10,3.404196692000198e-11,7.751138406747100e-11,
1088,4.000000000002236e-04,3.600000000003589e-03,2.771294440894961e-21,-2.957070764556011e-20,4.422517352562255e-11,8.984176476738191e-11,2.724050355003053e-11,7.105669237415050e-11,
1089,3.000000000004471e-04,3.600000000002299e-03,3.526152505005473e-20,-7.048676998660592e-20,2.276713493182878e-11,1.073830375521014e-11,1.338120434279708e-11,2.934142631383754e-11,
1090,2.000000000005962e-04,3.600000000001010e-03,-3.764578681815061e-21,1.616673702963639e-19,3.324495781623414e-11,3.058613827675632e-11,8.690560162859492e-12,1.758330643310952e-11,
1091,1.000000000006709e-04,3.599999999999721e-03,-9.060224040925273e-21,8.456836864800629e-20,-1.828088811396450e-11,-5.150990781482981e-11,2.014290352516008e-11,5.222177706643197e-11,
1092,7.454703087467207e-16,3.599999999998430e-03,-1.431901965120266e-19,3.009084403808107e-20,1.976736236971572e-11,2.954947639605293e-11,-1.872716299334829e-11,3.871067410859695e-11,
1093,-9.999999999932920e-05,3.599999999997141e-03,1.623206337067139e-20,2.849908868022463e-20,-2.720186895104334e-11,-7.589044977276161e-12,-3.369021683864082e-12,2.073798670679877e-11,
1094,-1.999999999994036e-04,3.599999999995850e-03,7.553197117434273e-20,1.350609045697906e-19,1.077787829811539e-10,1.788847950793957e-10,-1.152894527822095e-12,7.114338774393893e-11,
1095,-2.999999999995526e-04,3.599999999994561e-03,1.111021907932838e-19,5.564741191105606e-20,5.204524452183621e-11,5.825880989834478e-11,1.003782879331357e-11,2.101524261634031e-11,
1096,-3.999999999997764e-04,3.599999999993273e-03,-1.775871350222191e-20,1.062663547483591e-19,7.161004472710115e-12,-1.085726746787920e-11,7.016479754464619e-12,2.283817147462283e-11,
1097,4.000000000002304e-04,3.466666666670123e-03,3.870418606704204e-20,-1.830194762950640e-19,-4.234623344858712e-11,-6.575649678854928e-11,-4.761741190902000e-12,2.527324961936847e-11,
1098,3.000000000004608e-04,3.466666666668882e-03,-8.060447724779688e-20,-1.600351583460074e-19,1.746173551569957e-12,-3.029669805277087e-11,9.028720182609466e-12,3.678065759602064e-11,
1099,2.000000000006143e-04,3.466666666667639e-03,-1.873160103997433e-19,-3.603013837374351e-21,-1.183904400423119e-10,-1.954622718077707e-10,2.658840995200219e-11,9.363675254293094e-11,
1100,1.000000000006912e-04,3.466666666666398e-03,-9.735089995295588e-20,9.925839696282909e-20,2.068557657579120e-12,4.942548869579502e-11,9.446079727418980e-12,5.098620015480031e-11,
1101,7.680352664615753e-16,3.466666666665156e-03,8.591250850815155e-20,1.785925909411938e-19,7.485592319462931e-11,1.349182531983065e-10,-1.979416260095945e-11,7.193551958360701e-11,
1102,-9.999999999930883e-05,3.466666666663914e-03,-3.372073616139799e-21,-5.820817737430582e-20,5.136042159900866e-11,7.340715892472959e-11,-3.034724197737959e-12,2.286693749793973e-11,
1103,-1.999999999993855e-04,3.466666666662673e-03,4.738550794225163e-20,3.373121819590100e-19,-4.710520080008191e-11,-8.229256507852848e-11,6.599689794835212e-12,3.758156764181487e-11,
1104,-2.999999999995391e-04,3.466666666661430e-03,3.910878522022384e-20,-4.532162880529907e-19,1.157417248630889e-10,1.669515925949913e-10,-8.613948665199445e-12,5.403009346230769e-11,
1105,-3.999999999997696e-04,3.466666666660188e-03,6.216590570891655e-20,-4.537854295216228e-19,2.474326685105074e-11,2.330033633626460e-11,-1.591741407266080e-11,3.186751216384269e-11,
1106,4.000000000002371e-04,3.333333333336658e-03,7.208506427010773e-20,3.879886616817377e-22,8.474903187595031e-11,1.162557851982990e-10,1.616761435294161e-11,4.514689934399817e-11,
1107,3.000000000004742e-04,3.333333333335462e-03,5.745919379587090e-20,1.211969796540678e-19,-4.499921923295105e-11,-4.506268561812740e-11,-2.132910328935285e-13,4.312774523409833e-13,
1108,2.000000000006325e-04,3.333333333334269e-03,4.418260911753131e-20,-4.048158864981637e-19,5.432383790285432e-11,7.697919660471329e-11,2.806951275920780e-11,6.053804972137123e-11,
1109,1.000000000007116e-04,3.333333333333075e-03,6.900261113322258e-20,-1.031340098224842e-19,-9.330942312248261e-11,-1.465408157408429e-10,-1.878302360786499e-11,6.515204573537564e-11,
1110,7.906070004400079e-16,3.333333333331880e-03,1.675190202265545e-20,1.021185855946493e-19,7.282827847675787e-11,8.405623989543794e-11,8.801315925727813e-12,2.087869166679867e-11,
1111,-9.999999999928851e-05,3.333333333330687e-03,-1.910012285154263e-20,8.628295956883478e-20,1.593328066895474e-11,1.422481710323626e-11,2.336115392466170e-12,4.974795298608469e-12,
1112,-1.999999999993674e-04,3.333333333329492e-03,-7.524372437084340e-21,1.052964256088407e-19,6.291261634996879e-11,1.057575441709953e-10,-6.805910205381548e-12,4.495519430370467e-11,
1113,-2.999999999995255e-04,3.333333333328298e-03,4.619041340135152e-21,1.035325262765064e-19,-2.942866345711356e-11,-2.440231382841499e-11,2.094422600792715e-11,4.218893934284727e-11,
1114,-3.999999999997627e-04,3.333333333327105e-03,2.255280322864779e-21,-3.789967140691740e-19,9.778129497494095e-12,-1.429226801725607e-11,-1.548053087699627e-13,2.407238864866934e-11,
1115,4.000000000002439e-04,3.200000000003190e-03,-9.455983001663923e-20,2.686780193852913e-19,-3.506149915937989e-11,-4.858263834686349e-11,-1.625751400123476e-12,1.390659826799202e-11,
1116,3.000000000004879e-04,3.200000000002044e-03,-8.685809263964692e-20,-2.395015619923477e-19,1.353457982041857e-10,1.864823812669561e-10,1.641715693290821e-11,6.077040640290761e-11,
1117,2.000000000006504e-04,3.200000000000897e-03,-1.567762827205806e-19,8.301881105851465e-20,-2.383780834584100e-11,-2.699133772891669e-11,-2.144297273596402e-11,4.300173329752077e-11,
1118,1.000000000007319e-04,3.199999999999751e-03,-7.743359160904059e-20,1.385861143310842e-20,8.533879825916244e-11,1.566529968545733e-10,-6.001928176139725e-12,7.231740792251796e-11,
1119,8.132058394727526e-16,3.199999999998604e-03,-2.268365420490475e-20,1.131852749607938e-19,5.293731905902112e-12,9.937433997271763e-12,-2.718666769216732e-11,5.457127055448433e-11,
1120,-9.999999999926825e-05,3.199999999997459e-03,-9.131663068624063e-20,-7.769901529780634e-20,9.569161425339870e-12,3.637963220638390e-11,3.070759668225925e-11,6.701214307498614e-11,
1121,-1.999999999993494e-04,3.199999999996313e-03,5.745260670622675e-20,2.113410944872997e-19,-1.075360894519909e-10,-1.105318774852616e-10,2.354522710533491e-11,4.718565061231520e-11,
1122,-2.999999999995120e-04,3.199999999995166e-03,1.857530521242990e-19,1.578647070654835e-19,-4.250077184453546e-11,-6.585952238584813e-11,-7.292774865966440e-12,2.753850917958273e-11,
1123,-3.999999999997560e-04,3.199999999994020e-03,1.126891237790890e-19,-2.072647393687519e-19,2.609882380760710e-11,2.824728146441768e-11,3.729864577504774e-12,7.762952361647423e-12,
1124,4.000000000002507e-04,3.066666666669725e-03,-1.602486648776593e-20,-4.663974114703858e-19,2.287336348298383e-11,5.000593229373731e-11,1.533369600178642e-11,4.094710273720323e-11,
1125,3.000000000005014e-04,3.066666666668626e-03,1.472794672565385e-20,1.212619094880685e-19,-3.361856864459318e-11,-7.596586974446524e-11,5.455457784549314e-12,4.373033259648528e-11,
1126,2.000000000006686e-04,3.066666666667528e-03,-1.434964515741022e-19,7.741126869704708e-20,1.020309680950621e-10,1.473135077205848e-10,-1.861268055295821e-11,5.861941576306361e-11,
1127,1.000000000007522e-04,3.066666666666428e-03,3.547914205380321e-20,5.450226443807583e-20,-5.284397897720356e-11,-4.052784287917010e-11,-2.873385303438253e-11,5.877265052038456e-11,
1128,8.358317835598095e-16,3.066666666665330e-03,6.215055138437641e-20,2.394519209115309e-19,-6.651752125806474e-11,-1.089519098398670e-10,2.123072141378374e-11,6.003042113220737e-11,
1129,-9.999999999924793e-05,3.066666666664231e-03,3.090019270836806e-20,4.003332371150553e-19,-1.002136451769323e-10,-1.595664635097435e-10,8.015629525905171e-12,6.147973902704808e-11,
1130,-1.999999999993313e-04,3.066666666663132e-03,1.774127959560245e-20,-7.533602068001281e-20,3.955962290986179e-12,3.178999706101363e-12,-5.701878511473506e-12,1.143019444702163e-11,
1131,-2.999999999994985e-04,3.066666666662035e-03,-2.095620696154397e-20,2.255138108915595e-19,-8.180582429261504e-11,-1.270854470405815e-10,-2.026445526522789e-11,6.076871584116167e-11,
1132,-3.999999999997493e-04,3.066666666660935e-03,2.815826290692708e-20,-1.151432274171655e-19,1.319670765572865e-10,2.089457010094016e-10,-1.511860809821832e-11,8.270427961024648e-11,
1133,4.000000000002575e-04,2.933333333336257e-03,-1.362176146510326e-21,1.062949244021558e-19,-8.007267197885690e-12,-3.753895625229837e-11,1.797526202526678e-11,4.652484108424778e-11,
1134,3.000000000005151e-04,2.933333333335206e-03,5.161900944058654e-20,2.469734081742720e-20,-1.110847154576083e-10,-1.548292680287308e-10,-5.781006517458165e-12,4.524672391529885e-11,
1135,2.000000000006867e-04,2.933333333334156e-03,1.535152875821187e-20,1.095380316058870e-19,2.338557459192311e-11,2.811665024152260e-11,2.164238943698446e-11,4.354256720693693e-11,
1136,1.000000000007725e-04,2.933333333333106e-03,-5.534922892412871e-20,-1.102642316956437e-19,2.973589102273883e-11,3.929309886155192e-11,-2.889762353304764e-11,5.858012295228873e-11,
1137,8.584035175382421e-16,2.933333333332055e-03,1.456532099033349e-20,-1.735412719089016e-19,-3.565311476886365e-11,-3.835362882303530e-11,-7.662094919937132e-12,1.556032038247556e-11,
1138,-9.999999999922755e-05,2.933333333331004e-03,2.313823996475131e-20,-4.967474071402202e-20,-1.352327449005443e-11,-3.056650170884490e-11,9.277674617301807e-12,2.519469347401205e-11,
1139,-1.999999999993131e-04,2.933333333329953e-03,-1.453456512835167e-20,-9.062653387186458e-20,1.782645061930300e-10,2.527656735522262e-10,1.125546233308336e-12,7.453516857951165e-11,
1140,-2.999999999994849e-04,2.933333333328902e-03,-5.343950891850503e-20,2.426627307927134e-19,5.089758798614875e-11,8.504935803517718e-11,-1.013021620471447e-12,3.421181446073690e-11,
1141,-3.999999999997425e-04,2.933333333327851e-03,2.307967427202237e-20,1.107275993458470e-19,5.754317839606448e-11,9.848127443815946e-11,1.226899861571892e-11,4.772882793115543e-11,
1142,4.000000000002642e-04,2.800000000002792e-03,-1.615345176988219e-19,1.466676392123076e-19,-5.132562849071433e-11,-3.199719256080516e-11,2.156359028115688e-11,4.726036541068020e-11,
1143,3.000000000005285e-04,2.800000000001788e-03,9.255489795733214e-22,8.205928108072408e-20,1.677847574284400e-11,4.466808449427127e-11,-5.301414887287098e-13,2.790975593408108e-11,
1144,2.000000000007046e-04,2.800000000000785e-03,1.215752906373829e-20,3.616323404347853e-21,-1.081479137819872e-11,1.872778361145519e-11,-2.429058995404225e-11,5.685855061713233e-11,
1145,1.000000000007928e-04,2.799999999999782e-03,2.196288463672768e-19,-2.240091085458877e-20,-7.589550195288991e-11,-1.157385219092329e-10,-1.612947782005972e-11,5.126506079419726e-11,
1146,8.809752515166747e-16,2.799999999998779e-03,-6.744706192893698e-20,-5.324235603974248e-20,1.148566845007771e-10,1.362087806197151e-10,-2.545541582702876e-12,2.195065230168444e-11,
1147,-9.999999999920722e-05,2.799999999997776e-03,2.057328235929863e-20,-4.911256891436754e-20,1.391467266005380e-11,3.375347047263035e-11,-2.496156856626523e-11,5.372055025594706e-11,
1148,-1.999999999992951e-04,2.799999999996773e-03,3.560635481592559e-21,3.100817511645398e-19,4.233456593835930e-11,6.758819467207674e-11,-7.749329013204214e-12,2.963029133910084e-11,
1149,-2.999999999994714e-04,2.799999999995770e-03,2.489260919294828e-20,-4.298536990557466e-19,-4.368720601735932e-11,-3.400520071076441e-11,3.377397929808084e-11,6.823831722181977e-11,
1150,-3.999999999997356e-04,2.799999999994768e-03,9.402065015183338e-20,1.465634730449021e-19,-6.886833165693079e-11,-1.199403806832396e-10,-8.812707665905763e-12,5.402785816006906e-11,
1151,4.000000000002710e-04,2.666666666669326e-03,2.482772790290976e-20,-1.464707434624204e-19,-4.495169096314380e-11,-7.321491054293012e-11,1.593075457889102e-11,4.259067206357098e-11,
1152,3.000000000005421e-04,2.666666666668370e-03,-1.137795788226621e-20,1.418040903400096e-19,7.105507145219166e-12,-3.349476217418448e-12,-3.843118409730872e-12,1.297632126443696e-11,
1153,2.000000000007227e-04,2.666666666667415e-03,-2.463647432807496e-20,-1.571146758351998e-20,6.200872099473161e-11,9.232932622055580e-11,-1.463188647578326e-11,4.213914461188211e-11,
1154,1.000000000008132e-04,2.666666666666460e-03,1.130534146897118e-20,5.447430964725695e-19,-1.009250060740698e-10,-1.384897187256930e-10,3.835867142142341e-11,8.542047956705654e-11,
1155,9.035740905494194e-16,2.666666666665505e-03,1.004731582249767e-19,1.984410877286993e-19,-6.437226655511049e-11,-8.349756816797835e-11,-1.219572521799105e-11,3.099548380254997e-11,
1156,-9.999999999918688e-05,2.666666666664549e-03,2.087250115293992e-20,1.758262020559188e-19,-1.644335647532248e-11,-3.202266288382992e-11,3.900459240532489e-12,1.742323498430707e-11,
1157,-1.999999999992771e-04,2.666666666663594e-03,8.538640313572584e-20,-2.028551344273321e-19,-3.249375163067395e-11,-4.959539305451292e-11,-5.735532449407830e-12,2.059251002919278e-11,
1158,-2.999999999994579e-04,2.666666666662638e-03,7.363189235939054e-20,-1.861070806695174e-19,1.494056864749181e-10,1.770733059163782e-10,1.147451560201508e-11,3.594656031890960e-11,
1159,-3.999999999997289e-04,2.666666666661682e-03,-1.577100745072014e-19,-1.677147811649753e-19,-6.545830593189327e-11,-1.060188066167873e-10,-2.273131249920536e-12,4.081449152601003e-11,
1160,4.000000000002777e-04,2.533333333335860e-03,8.581887342972878e-20,-2.795660097801346e-19,7.044402869718272e-11,1.108489233348423e-10,-3.785361904996604e-11,8.581457575144322e-11,
1161,3.000000000005556e-04,2.533333333334952e-03,5.458319568429406e-20,2.890172483374818e-19,-3.812075357782637e-11,-4.561765889304475e-11,-2.875798177898086e-11,5.800249695751149e-11,
1162,2.000000000007408e-04,2.533333333334044e-03,9.166997371713035e-20,-1.524674265701622e-19,9.760313548224654e-11,1.279176208766575e-10,6.239588688654599e-12,3.278258520529307e-11,
1163,1.000000000008335e-04,2.533333333333137e-03,-4.497616745627456e-20,-2.074561569652785e-19,2.998548595830277e-11,1.261724383224614e-11,-1.087065331538486e-11,2.782696980561268e-11,
1164,9.262000346364763e-16,2.533333333332229e-03,-8.301718605344031e-20,3.656346009233200e-19,-4.253051277270259e-11,-5.782649878863768e-11,1.313075881420740e-11,3.039135561878119e-11,
1165,-9.999999999916659e-05,2.533333333331322e-03,3.131223635015871e-20,1.883871250908215e-19,6.291902225768387e-12,2.229555068629856e-11,5.319604577447559e-12,1.921742791035871e-11,
1166,-1.999999999992590e-04,2.533333333330414e-03,4.354586992834211e-21,-3.465519039439649e-21,-3.197570676662234e-11,-5.852064449673449e-11,-1.681827568998993e-11,4.284916927822004e-11,
1167,-2.999999999994442e-04,2.533333333329506e-03,-7.202282845182502e-20,2.082323761412769e-20,6.940153306136574e-11,9.456885588813897e-11,-7.870516143577366e-12,2.968457908969352e-11,
1168,-3.999999999997222e-04,2.533333333328600e-03,-4.955214252105143e-20,1.301746521239045e-19,8.224795368627732e-11,1.303064273376749e-10,1.961335779940989e-11,6.203508770343415e-11,
1169,4.000000000002846e-04,2.400000000002394e-03,7.888392714119220e-21,1.210101195738466e-20,-4.128303359357260e-11,-3.443324121532984e-11,5.648630779485002e-12,1.321165297594568e-11,
1170,3.000000000005693e-04,2.400000000001534e-03,-4.362150619929063e-20,-3.155458405671491e-20,-6.548398567730486e-12,-4.376033737866537e-12,2.240666921595353e-11,4.486596115505236e-11,
1171,2.000000000007589e-04,2.400000000000674e-03,-2.970104501772916e-20,9.716649347695618e-20,-6.819060452704313e-13,7.668582246293060e-13,-6.167762458300978e-12,1.242030969331465e-11,
1172,1.000000000008539e-04,2.399999999999815e-03,-1.034535745053111e-19,2.197550691673096e-20,6.358548568626982e-11,8.960810794718780e-11,1.655254724531131e-11,4.210848074399590e-11,
1173,9.486565721340823e-16,2.399999999998954e-03,-9.581810135314640e-21,9.149408256825405e-20,-1.094665423276761e-10,-1.522349825257145e-10,2.530012766491661e-12,4.306673118972025e-11,
1174,-9.999999999914624e-05,2.399999999998095e-03,-4.604052101402907e-20,1.636573051448352e-19,3.186734291289534e-11,4.260272979054854e-11,-4.059898372888680e-12,1.346029831042483e-11,
1175,-1.999999999992409e-04,2.399999999997235e-03,5.370578151264642e-20,-3.826121503668563e-20,6.545538905433589e-11,7.970197802805482e-11,-2.926339876013275e-11,6.023579770671463e-11,
1176,-2.999999999994306e-04,2.399999999996375e-03,-1.244870121915534e-19,-5.265979039508055e-20,-6.801225064780024e-11,-1.008440384235529e-10,8.226801936863917e-12,3.672393455208213e-11,
1177,-3.999999999997154e-04,2.399999999995514e-03,5.889363705989458e-21,1.321332713423528e-19,-1.534166505947096e-11,-1.069689531681585e-11,-1.796802218697142e-11,3.623497166010032e-11,
1178,4.000000000002914e-04,2.266666666668927e-03,-6.263720961484198e-20,-1.008478345520356e-20,3.485331266221035e-11,6.913784923670487e-11,8.828841175021087e-12,3.856453285212779e-11,
1179,3.000000000005827e-04,2.266666666668115e-03,4.100241381765242e-20,1.018465302966508e-19,-5.403994535768372e-11,-5.556306194800106e-11,-6.037725971416648e-11,1.207641248323166e-10,
1180,2.000000000007770e-04,2.266666666667303e-03,1.372824943322351e-19,2.379259303221952e-19,3.029513490279844e-12,-1.012754707650169e-12,1.131001588396102e-11,2.297837612551849e-11,
1181,1.000000000008742e-04,2.266666666666491e-03,1.158063983209612e-20,5.520200126385502e-20,-5.225343101900518e-11,-8.666490036385240e-11,2.435571017174346e-11,5.964018523069184e-11,
1182,9.713367263297634e-16,2.266666666665679e-03,1.141007991520283e-19,1.233647741398987e-20,1.946120245537510e-11,3.560850337661247e-11,1.166261771372788e-11,2.836903126275605e-11,
1183,-9.999999999912588e-05,2.266666666664866e-03,6.963638554359747e-20,-9.930283932719941e-22,-1.413267744117874e-11,-4.959752835708430e-11,-5.374849508966977e-12,3.705822013350852e-11,
1184,-1.999999999992229e-04,2.266666666664055e-03,-4.914243303403142e-20,3.264584266867989e-20,1.069981219437257e-11,1.979418642032594e-11,-9.479769424890875e-12,2.102788044378387e-11,
1185,-2.999999999994172e-04,2.266666666663242e-03,4.345269570526014e-20,-5.475114638430710e-20,4.270497381286158e-11,8.017356227358442e-11,1.702095984961704e-13,3.747013486056186e-11,
1186,-3.999999999997086e-04,2.266666666662431e-03,-2.103564731622936e-20,2.660405777439609e-20,8.228537759582933e-11,1.234008515556409e-10,-1.631797282630147e-11,5.249368674021288e-11,
1187,4.000000000002981e-04,2.133333333335460e-03,8.214968839313580e-20,1.949819728974678e-19,5.042201921177587e-11,7.820170095950493e-11,-8.817421414137183e-12,3.290438268047361e-11,
1188,3.000000000005964e-04,2.133333333334696e-03,6.439760639314704e-20,-1.007004173010998e-19,-3.750231391773263e-11,-4.192509435042066e-11,-4.634879939624382e-12,1.027080498182581e-11,
1189,2.000000000007950e-04,2.133333333333931e-03,7.930560624108800e-20,8.852484548490990e-20,-7.251521715601916e-11,-1.053985177304212e-10,2.209479942117108e-11,5.508204882276616e-11,
1190,1.000000000008945e-04,2.133333333333167e-03,6.469482885044793e-20,8.679998013752895e-20,8.456980473196229e-11,1.038684997337044e-10,-6.654689056221679e-12,2.344310505266420e-11,
1191,9.938813552538839e-16,2.133333333332403e-03,-8.011999670487277e-20,1.328636742931756e-19,3.379217145585333e-12,-2.509218893137004e-11,2.839337086510660e-12,2.903219427398196e-11,
1192,-9.999999999910555e-05,2.133333333331639e-03,-6.984746317444108e-20,1.031199782499839e-19,-3.305562631199104e-11,-3.702752671834583e-11,1.562608965074840e-11,3.150356652715542e-11,
1193,-1.999999999992048e-04,2.133333333330875e-03,-4.110325779169643e-20,-2.418584837368425e-19,-9.270877080402926e-11,-1.337132501088574e-10,4.548645551755113e-13,4.101456972972286e-11,
1194,-2.999999999994035e-04,2.133333333330111e-03,5.124622004162608e-20,8.937937413968085e-20,9.367001271302936e-11,1.401408357376480e-10,-4.163953394408349e-12,4.721113665300429e-11,
1195,-3.999999999997019e-04,2.133333333329346e-03,1.536151642587288e-20,-1.851674475221593e-20,1.053225256061172e-11,1.261724383224583e-11,-9.924112654519702e-12,1.995743561986817e-11,
1196,4.000000000003049e-04,2.000000000001995e-03,3.547580085762437e-20,5.080072897476235e-20,-2.071985364604599e-11,-1.017166297006507e-11,-1.921025379222677e-12,1.122611600542777e-11,
1197,3.000000000006098e-04,2.000000000001279e-03,8.860622265891522e-20,5.953250593002991e-20,-3.315388580546219e-11,-5.803682058837759e-11,1.274125972504184e-11,3.561627775238050e-11,
1198,2.000000000008131e-04,2.000000000000561e-03,1.035726051920786e-19,-4.817545925346482e-20,1.975861173704556e-11,7.206683516247086e-12,-9.748727001224241e-12,2.318839396417249e-11,
1199,1.000000000009148e-04,1.999999999999845e-03,7.220484828422208e-20,1.945464013686042e-20,-4.335023752356666e-11,-6.621854882642322e-11,1.527488142750592e-11,3.816081330818065e-11,
1200,1.016507299340941e-15,1.999999999999128e-03,7.230953308686910e-20,1.073270856147718e-20,-1.134799278263388e-11,-2.658663224480592e-11,-1.300707100686158e-11,3.014882613582531e-11,
1201,-9.999999999908525e-05,1.999999999998411e-03,-3.650441608495172e-20,-1.080115530657011e-19,6.134160875963146e-12,5.151279864952236e-13,-8.483683143569753e-12,1.787358524009328e-11,
1202,-1.999999999991867e-04,1.999999999997695e-03,3.179242146325053e-20,2.787992052877301e-20,-5.426698684777856e-11,-7.029930858519025e-11,1.197495192211425e-11,2.882070843056558e-11,
1203,-2.999999999993900e-04,1.999999999996979e-03,-2.900006663699545e-21,1.463716565541954e-19,-3.648955921008252e-11,-6.339216965318460e-11,1.630509462663914e-11,4.227499132806453e-11,
1204,-3.999999999996951e-04,1.999999999996263e-03,-2.106414244021996e-20,1.313701248490875e-19,-3.162173250617463e-11,-5.651263634677446e-11,-2.118579953020923e-11,4.914172871337394e-11,
1205,4.000000000003117e-04,1.866666666668528e-03,-3.860940745008646e-20,4.945273342188449e-20,-4.283190658321470e-11,-4.883436858499732e-11,-1.360093447552170e-11,2.785626005968107e-11,
1206,3.000000000006235e-04,1.866666666667859e-03,-3.420743284590180e-20,-1.040844851273251e-19,-7.274702474994215e-11,-8.373122498817277e-11,2.262440708425685e-12,1.187969724825141e-11,
1207,2.000000000008311e-04,1.866666666667191e-03,1.804582970964298e-20,1.112473917142985e-20,-4.705319250274613e-12,1.047277070427783e-11,6.077081235021511e-12,1.944474427748249e-11,
1208,1.000000000009352e-04,1.866666666666522e-03,-1.283558892319146e-20,-8.206193287330811e-20,-2.488186713162995e-11,-4.063670223158275e-11,-2.473330552894466e-11,5.191493463907283e-11,
1209,1.039102750241896e-15,1.866666666665853e-03,5.024145739939709e-21,-2.113657148676383e-20,-2.992707175325417e-11,-4.650348083034240e-11,-2.725424507617419e-12,1.744961583754381e-11,
1210,-9.999999999906492e-05,1.866666666665184e-03,-4.201350648168595e-20,-1.014574252014527e-19,5.643216419494345e-11,5.107176295000869e-11,-1.564874554367964e-11,3.175321794511591e-11,
1211,-1.999999999991687e-04,1.866666666664515e-03,-1.200595153442015e-19,2.960006817627062e-20,4.008784878807807e-11,5.080253144653425e-11,-1.891303288998329e-11,3.931431898000753e-11,
1212,-2.999999999993764e-04,1.866666666663847e-03,-5.355522357646920e-20,1.290425860105451e-19,-3.309440394912797e-11,-4.967878208390071e-11,-1.310643918914850e-11,3.101864908393850e-11,
1213,-3.999999999996883e-04,1.866666666663178e-03,-1.318036716188240e-20,-3.948114502213791e-20,1.513347856230181e-11,3.662125808426272e-11,-5.949953070922490e-12,2.456282628219160e-11,
1214,4.000000000003185e-04,1.733333333335061e-03,9.488776663945526e-20,-7.614603373575885e-20,1.360609136684111e-12,-4.737195481014455e-13,-1.144304932224835e-11,2.295949199981264e-11,
1215,3.000000000006369e-04,1.733333333334440e-03,6.772233791139528e-21,1.709777924479596e-20,4.215106818922966e-11,3.749541251133331e-11,3.574525443092125e-12,8.531357357676459e-12,
1216,2.000000000008493e-04,1.733333333333819e-03,-6.198876673023075e-21,2.665731344205389e-20,2.409110173394686e-11,2.764876444853433e-11,5.511417418608869e-12,1.158273939270615e-11,
1217,1.000000000009554e-04,1.733333333333199e-03,5.577434052895432e-21,6.367266290827022e-20,6.913258763419103e-12,-5.228416294454414e-12,1.018364273439018e-11,2.371173950974031e-11,
1218,1.061698201142852e-15,1.733333333332577e-03,-5.536627410468039e-20,-9.262224572142632e-20,-1.769013073337956e-12,-3.863041053942074e-12,-8.190021013871420e-12,1.651335005424928e-11,
1219,-9.999999999904462e-05,1.733333333331956e-03,-2.585475765112632e-21,-3.759971905733690e-20,4.971919952492235e-12,1.569748854618968e-11,1.528623659075698e-12,1.115278363559757e-11,
1220,-1.999999999991506e-04,1.733333333331336e-03,-5.529282294520279e-20,-1.538588473159778e-19,-2.038074984968230e-11,-2.989626317380192e-11,4.690741876810768e-12,1.336253086959812e-11,
1221,-2.999999999993630e-04,1.733333333330715e-03,-2.064483465255513e-20,-1.827011388857857e-19,-2.001617573029311e-11,-2.125888880559481e-11,5.160112286375195e-12,1.039477614090495e-11,
1222,-3.999999999996814e-04,1.733333333330094e-03,-2.856942563510875e-20,-2.853838439036165e-19,5.671975519265790e-11,7.249742981437861e-11,-5.506970583198815e-12,1.924167135375090e-11,
1223,4.000000000003252e-04,1.600000000001596e-03,-7.020750311155121e-20,1.356343170061622e-19,-2.521990327670836e-11,-2.398807613664792e-11,-1.523650415960077e-12,3.286858753157903e-12,
1224,3.000000000006505e-04,1.600000000001022e-03,-2.114459171293409e-20,-2.056904490374630e-19,-1.339128953957431e-11,-1.950474619634049e-11,5.808488268382738e-12,1.312739487293341e-11,
1225,2.000000000008673e-04,1.600000000000450e-03,-3.183515375460671e-20,-2.679494325209775e-19,-1.901139008032760e-11,-2.492968147773690e-11,-2.448249990394622e-12,7.681268458172641e-12,
1226,1.000000000009758e-04,1.599999999999876e-03,8.803636179731671e-21,-1.573485035528435e-20,-3.048894643457096e-11,-3.696804486201157e-11,-9.517524752018729e-13,6.752928811165929e-12,
1227,1.084324145229909e-15,1.599999999999303e-03,-4.953723813415971e-21,-1.447062371952167e-19,1.138417944905563e-10,1.609637149809927e-10,1.003925595833314e-11,5.122130446888987e-11,
1228,-9.999999999902429e-05,1.599999999998730e-03,-9.483681256879371e-21,-1.584016726403903e-20,-7.839181403873497e-11,-1.082822434574232e-10,8.119043712248284e-12,3.401636744332320e-11,
1229,-1.999999999991325e-04,1.599999999998156e-03,3.245764213849299e-20,-1.848341309732991e-19,3.852595456062369e-11,6.242879244161274e-11,-1.165089738752116e-11,3.338142145719735e-11,
1230,-2.999999999993495e-04,1.599999999997583e-03,-8.615134247681186e-21,4.047345458058522e-21,2.484045869323584e-11,2.642412479117274e-11,-1.561616330029825e-11,3.127245150601535e-11,
1231,-3.999999999996747e-04,1.599999999997010e-03,-3.972752430443056e-20,-8.715512982307006e-20,2.129339583758982e-11,5.751513338634172e-12,1.415644157608189e-12,1.579766771188788e-11,
1232,4.000000000003321e-04,1.466666666668129e-03,-3.613598339570754e-20,-3.497688397892880e-20,2.244503690211921e-11,4.743498181117582e-11,1.416878595010187e-11,3.778247381732570e-11,
1233,3.000000000006640e-04,1.466666666667603e-03,5.237511545961582e-20,1.193551177166295e-19,-7.994282233094788e-11,-1.128409933694335e-10,1.834435449914074e-11,4.927830177307283e-11,
1234,2.000000000008853e-04,1.466666666667078e-03,2.560238661155809e-21,7.068004784893755e-20,4.625388589477902e-11,7.013893643412771e-11,1.723334029801988e-12,2.413245035176362e-11,
1235,1.000000000009962e-04,1.466666666666553e-03,1.341691389685814e-20,-9.457662790736363e-20,-3.525374754117981e-11,-6.371718456045068e-11,-3.709319992516811e-12,2.941434116511093e-11,
1236,1.106868774154030e-15,1.466666666666028e-03,-2.785519149876947e-20,4.854844523585358e-20,-2.984980255527999e-11,-4.736169714204404e-11,-5.522222066211185e-12,2.070377255990161e-11,
1237,-9.999999999900393e-05,1.466666666665502e-03,1.245930346272765e-21,-1.058400107385574e-19,-3.244914023842359e-11,-3.224892279893900e-11,7.515196142217450e-12,1.503172575744628e-11,
1238,-1.999999999991144e-04,1.466666666664977e-03,-5.316620739148965e-21,-1.111659565659913e-19,1.870494408968743e-11,3.640510252940928e-11,3.632744254394192e-12,1.913329381111868e-11,
1239,-2.999999999993358e-04,1.466666666664451e-03,4.682990792825965e-20,3.419492758336362e-20,-2.722762535036823e-11,-2.582930622783250e-11,-1.539390707750977e-11,3.081955218384053e-11,
1240,-3.999999999996680e-04,1.466666666663926e-03,5.154203461152014e-20,-1.444010104622709e-19,2.661025334155945e-11,3.019367245547168e-11,-3.220980297093978e-13,3.640862687457764e-12,
1241,4.000000000003388e-04,1.333333333334662e-03,-4.166712979778856e-20,-8.546810691184742e-21,-2.774887316827672e-11,-4.697720037844368e-11,-8.537942512257128e-12,2.571603423297763e-11,
1242,3.000000000006777e-04,1.333333333334185e-03,-1.294572631605036e-20,-4.374066375817661e-21,-1.299377153816173e-11,-1.618074030194700e-11,6.026759962328980e-12,1.246772282638131e-11,
1243,2.000000000009035e-04,1.333333333333707e-03,2.847924600373593e-20,2.795900617049167e-20,5.672394914388614e-12,-4.599167353033137e-13,2.960747175632923e-13,6.160834937122408e-12,
1244,1.000000000010165e-04,1.333333333333229e-03,-8.540282484863507e-21,2.295712711019384e-19,-5.422799978825572e-12,-2.198121229188771e-12,-6.115813530881870e-12,1.264955547109977e-11,
1245,1.129467613186774e-15,1.333333333332752e-03,2.985769512987977e-20,-1.045741543607774e-19,-1.386102455883327e-11,-1.042125790562838e-11,-8.363963904467458e-12,1.707792620341938e-11,
1246,-9.999999999898355e-05,1.333333333332274e-03,2.861046125803510e-20,1.362722614052064e-20,3.342632026279306e-11,4.656296268667636e-11,1.138352566441621e-11,2.628516692704576e-11,
1247,-1.999999999990964e-04,1.333333333331796e-03,-3.611077534026459e-21,-4.340125686053621e-20,1.140135480755445e-11,3.413583193365932e-11,-4.309598119536839e-12,2.431351463702949e-11,
1248,-2.999999999993223e-04,1.333333333331319e-03,8.422483084521044e-20,-5.049879060661628e-20,-3.005001999476448e-11,-4.022459984238641e-11,7.543242059068691e-12,1.819681505435624e-11,
1249,-3.999999999996612e-04,1.333333333330841e-03,-5.293570856900862e-21,8.661435637964060e-21,3.898878817348366e-11,6.114253562534599e-11,-5.093657504567201e-13,2.217715806932553e-11,
1250,4.000000000003456e-04,1.200000000001197e-03,3.844891306907914e-20,-4.149836061025734e-20,3.506441603693621e-11,4.476527633645686e-11,3.894631208380421e-12,1.244103289715040e-11,
1251,3.000000000006911e-04,1.200000000000767e-03,-3.858445550674116e-20,-1.082716348758487e-19,-1.296033215745220e-11,-2.972208820994152e-11,-1.446658601926492e-11,3.343777669305074e-11,
1252,2.000000000009214e-04,1.200000000000337e-03,-4.303729949388847e-20,7.349409514288622e-20,2.035022734652929e-11,3.414593629391497e-11,7.509392727387782e-13,1.387721962521106e-11,
1253,1.000000000010368e-04,1.199999999999907e-03,-8.361804978248619e-21,-2.967077508488042e-20,4.520740573011986e-11,7.817196003133840e-11,4.012260356941706e-13,3.297431985052704e-11,
1254,1.152063064087730e-15,1.199999999999477e-03,-7.656158401439365e-22,1.022555496651827e-20,2.287414505796997e-11,2.803326121213460e-11,-3.868256704023891e-12,9.298931078627549e-12,
1255,-9.999999999896326e-05,1.199999999999047e-03,-4.710877608825546e-20,-4.925396073459899e-21,-2.849609482499465e-11,-4.981738236448029e-11,-9.573358851112053e-12,2.865648445134342e-11,
1256,-1.999999999990784e-04,1.199999999998618e-03,-2.880406075440486e-20,6.076473758568837e-20,1.298502090549151e-11,2.282661678816275e-11,-4.655557981023128e-12,1.354820615345382e-11,
1257,-2.999999999993087e-04,1.199999999998187e-03,4.833008569369475e-20,3.531803111234270e-20,2.760522070756931e-11,5.259224873906919e-11,-7.309103768828369e-12,2.894898204533218e-11,
1258,-3.999999999996543e-04,1.199999999997757e-03,4.733885813989686e-20,-1.691890065834168e-20,2.479477964969972e-11,3.512098101571343e-11,-1.270194826226209e-12,1.063409677583155e-11,
1259,4.000000000003523e-04,1.066666666667730e-03,-2.332376924865507e-21,2.521296081167377e-20,3.731405006477449e-11,4.033559449736993e-11,-4.025939295068110e-12,8.600144160910443e-12,
1260,3.000000000007048e-04,1.066666666667348e-03,-1.652654965940567e-20,1.681831050435405e-20,2.621885517156026e-11,3.556495963564769e-11,9.348825947897754e-12,2.090339338648107e-11,
1261,2.000000000009396e-04,1.066666666666966e-03,-4.438222895142478e-21,9.710458569494131e-20,-1.415736618921791e-11,-2.160567558334356e-11,6.864395929504958e-12,1.561912413481106e-11,
1262,1.000000000010571e-04,1.066666666666584e-03,1.208942064994329e-20,7.013317402210609e-20,2.144473127968216e-12,-1.003092738691455e-11,-3.931673912178510e-12,1.449388204397386e-11,
1263,1.174634798066163e-15,1.066666666666201e-03,-4.300613588239119e-20,-2.016825754826038e-20,2.776772816120241e-11,3.750921532413133e-11,-3.807926428320755e-12,1.236518446605321e-11,
1264,-9.999999999894298e-05,1.066666666665820e-03,1.353607483088332e-20,-1.583340317679463e-20,-2.041155842913462e-11,-1.581431695628681e-11,-3.660860314396981e-12,8.645358415113796e-12,
1265,-1.999999999990603e-04,1.066666666665437e-03,4.131162885487272e-20,-3.037906281832666e-22,-1.057366099900645e-12,-5.155131625322450e-12,1.742553632422313e-12,5.379373099981840e-12,
1266,-2.999999999992952e-04,1.066666666665055e-03,-5.660395564230238e-20,9.248060565110218e-20,9.285841032767972e-13,3.432865246805939e-12,1.211513708356256e-13,2.515975887097695e-12,
1267,-3.999999999996476e-04,1.066666666664673e-03,-3.799937366226261e-20,4.087359579230506e-20,3.266422814199173e-11,4.385554722610596e-11,-5.212888130056643e-12,1.529517680409093e-11,
1268,4.000000000003592e-04,9.333333333342634e-04,7.944438324498666e-20,1.357094905209359e-19,-4.781762934850490e-11,-5.350197784942032e-11,-9.301493071836934e-12,1.945206701976892e-11,
1269,3.000000000007181e-04,9.333333333339290e-04,5.669130597936860e-21,-3.435762247411017e-20,-1.771502890380537e-11,-2.657652788455031e-11,3.100343588423037e-12,1.081548360688725e-11,
1270,2.000000000009577e-04,9.333333333335946e-04,1.039506105264109e-20,3.791105384257553e-20,-2.082074394077424e-12,-3.844967636002322e-13,-3.673638030623857e-12,7.540837840166056e-12,
1271,1.000000000010775e-04,9.333333333332606e-04,1.322144477647456e-20,3.637012993873204e-20,-1.837011089846549e-11,-2.426157824526452e-11,8.523825565879492e-14,5.893933299530147e-12,
1272,1.197231943033013e-15,9.333333333329261e-04,4.866174348128777e-20,3.493845084855527e-20,1.280074158137587e-11,3.401900352356242e-11,-7.536574686198495e-12,2.602718716745692e-11,
1273,-9.999999999892262e-05,9.333333333325917e-04,2.459601670550055e-20,8.529561697886173e-20,1.454983201050254e-11,1.333685986336786e-11,6.527546644408495e-12,1.311132190930567e-11,
1274,-1.999999999990421e-04,9.333333333322575e-04,1.923854550059484e-20,-7.291413094064804e-21,-3.232647807321275e-12,-2.574648935104405e-12,2.132857973337751e-12,4.316166708267921e-12,
1275,-2.999999999992816e-04,9.333333333319234e-04,2.419784225126105e-20,3.904273305564989e-20,-1.706393143798761e-11,-2.439434477073070e-11,8.765374789844856e-13,7.537123551933825e-12,
1276,-3.999999999996409e-04,9.333333333315891e-04,6.300085263660041e-20,5.658924167470855e-20,-6.109102282669673e-11,-4.552046705085956e-11,4.209222486973152e-12,1.770063340527163e-11,
1277,4.000000000003659e-04,8.000000000007979e-04,7.559979917792332e-21,-4.029237884168501e-21,-2.540923478095301e-12,-3.395155260954538e-12,-3.367406597208500e-12,6.788771663750386e-12,
1278,3.000000000007319e-04,8.000000000005112e-04,-4.389417506474148e-20,4.803378282891158e-20,3.982786341595977e-12,-4.705319250274611e-12,1.144453581830643e-13,8.691120165751454e-12,
1279,2.000000000009757e-04,8.000000000002248e-04,-9.014715520472928e-20,-1.029773897283423e-19,-7.833873809011364e-12,-7.020268889560417e-12,-2.673956916382612e-12,5.409448708291485e-12,
1280,1.000000000010977e-04,7.999999999999381e-04,-2.443891837147626e-20,4.824640541727376e-20,-3.391170732112139e-12,5.629423326023130e-13,-2.870919046414159e-12,6.971636451565719e-12,
1281,1.219829087999863e-15,7.999999999996515e-04,-4.056580434915096e-20,-6.185273876941265e-20,2.515167078770399e-12,5.414830921141014e-12,1.576520282956358e-12,4.283656756679122e-12,
1282,-9.999999999890228e-05,7.999999999993648e-04,-3.427806127137464e-20,-6.971589913269819e-20,1.070101261413045e-13,-7.567273106793709e-12,-5.181252165470374e-12,1.289480977556758e-11,
1283,-1.999999999990241e-04,7.999999999990781e-04,-7.012993085578452e-20,8.327982288209114e-20,9.505695040163743e-12,1.480953130632118e-11,-9.762432117149023e-12,2.023242453355450e-11,
1284,-2.999999999992681e-04,7.999999999987915e-04,-2.542210170322789e-20,7.189137036768307e-20,-1.699064676885541e-11,-5.295867208472896e-12,-5.420950752554254e-13,1.174492814998906e-11,
1285,-3.999999999996340e-04,7.999999999985050e-04,-9.758077604873940e-21,-3.587812414161570e-20,4.813175832052972e-11,6.760783123998854e-11,-2.309506671665160e-12,2.001631086464088e-11,
1286,4.000000000003727e-04,6.666666666673310e-04,-1.690405719049513e-20,1.330396967746318e-20,8.732716984121113e-12,-2.499228963401386e-12,1.257583539385201e-12,1.151011186749275e-11,
1287,3.000000000007453e-04,6.666666666670923e-04,-2.777911516188382e-20,-7.813350060699222e-20,1.429013271468394e-11,8.102323737500249e-12,2.088513493908606e-12,7.465690483476288e-12,
1288,2.000000000009938e-04,6.666666666668536e-04,-4.113962267650848e-20,5.682009000309890e-20,-9.053747362545033e-12,-1.231827140060435e-12,-8.999246167263825e-12,1.962468247597816e-11,
1289,1.000000000011181e-04,6.666666666666146e-04,-2.284100701279726e-20,-7.366629610597140e-20,-2.772019989139523e-11,-3.371177595793656e-11,-9.675571341601815e-14,5.994700195461421e-12,
1290,1.242373716923983e-15,6.666666666663758e-04,-1.283969689228895e-20,8.976653186154212e-21,-1.423171850963544e-11,-1.847021961820780e-11,-1.962825823414737e-12,5.777164745757559e-12,
1291,-9.999999999888192e-05,6.666666666661370e-04,-1.975047002263272e-20,-7.415525846367807e-20,4.545728674198273e-12,1.805996645528279e-11,9.778982514323261e-13,1.365502701441157e-11,
1292,-1.999999999990060e-04,6.666666666658982e-04,1.488034412905067e-20,2.827618306255929e-20,-1.483528770564606e-11,-1.735045478441647e-11,-4.512136673599694e-12,9.368221543019977e-12,
1293,-2.999999999992545e-04,6.666666666656595e-04,-3.314054067605971e-20,1.584628248351461e-20,3.200039551466126e-11,3.538864936921664e-11,5.269381589758993e-12,1.107004035841212e-11,
1294,-3.999999999996272e-04,6.666666666654206e-04,-3.311191934359862e-20,3.269794176388155e-20,-2.492861382645136e-11,-2.030561595427878e-11,-6.526698216322813e-12,1.384786148666710e-11,
1295,4.000000000003794e-04,5.333333333338658e-04,1.191690140517405e-20,-4.117419922473903e-20,-1.298502090549151e-11,-2.971703602981382e-11,-7.095545823113570e-12,2.193963108696608e-11,
1296,3.000000000007590e-04,5.333333333336748e-04,2.743211067572460e-20,-4.339528299697822e-20,7.167905879109950e-12,2.777783252145759e-12,1.167898448316333e-12,4.972838608089123e-12,
1297,2.000000000010119e-04,5.333333333334835e-04,4.008839389937518e-20,1.442091724797241e-21,7.589044977276232e-12,6.978574374866645e-12,8.331891317659031e-13,1.774680499013164e-12,
1298,1.000000000011384e-04,5.333333333332923e-04,3.905783399874540e-21,8.671626328052520e-21,9.837611353828970e-12,1.279277252369136e-11,-7.435040406970401e-13,3.308197481105651e-12,
1299,1.264997966945146e-15,5.333333333331011e-04,1.398736588881925e-20,5.926896555986907e-20,-8.942752707561484e-12,-1.520783088271947e-11,-9.467821810435487e-13,6.544982088150223e-12,
1300,-9.999999999886166e-05,5.333333333329102e-04,2.005468274987728e-20,5.254888409860156e-20,5.876596882715521e-12,5.340478600723471e-12,3.752050123227252e-12,7.523226922081020e-12,
1301,-1.999999999989879e-04,5.333333333327189e-04,-1.187322126968874e-20,-2.684273868479674e-20,1.519694494747821e-11,1.130231373909780e-11,-1.021586441134445e-12,4.398034524208467e-12,
1302,-2.999999999992411e-04,5.333333333325277e-04,-1.357979941506571e-20,6.137964314851003e-20,1.356624607841968e-12,-1.428429895957050e-11,-1.529360296402097e-12,1.593719742321351e-11,
1303,-3.999999999996205e-04,5.333333333323367e-04,2.694624934352362e-20,8.431039573208937e-20,7.174807285508971e-12,2.603350819615922e-11,4.081169709738516e-12,2.054931592136607e-11,
1304,4.000000000003862e-04,4.000000000003990e-04,-2.273723156412688e-20,-2.084260240337844e-20,1.119131908411422e-11,1.638095774143153e-12,-6.599911366379939e-13,9.643984073604506e-12,
1305,3.000000000007724e-04,4.000000000002556e-04,6.503633103784504e-21,3.089834409511543e-20,4.834101246898455e-12,3.802491546322629e-12,1.149310368211955e-12,2.519499129636710e-12,
1306,2.000000000010299e-04,4.000000000001124e-04,9.821759785597104e-21,2.406124592351508e-20,9.305477600679172e-12,6.431570157633321e-12,3.234373158921048e-12,7.078419521036459e-12,
1307,1.000000000011588e-04,3.999999999999691e-04,1.168600434161715e-20,-4.717111563923968e-20,-4.806209545002787e-13,-2.137571721569204e-12,-3.565364859450607e-12,7.320709813160968e-12,
1308,1.287595111911996e-15,3.999999999998257e-04,1.400150252196801e-20,1.130887286226519e-20,-7.838639912839411e-13,5.718073957924675e-12,-4.417210208193225e-12,1.096914678490651e-11,
1309,-9.999999999884130e-05,3.999999999996824e-04,1.198152411646833e-20,-1.460671907694105e-20,-7.704024161102045e-12,-3.813377481563877e-12,2.665260484136180e-12,6.599362497862401e-12,
1310,-1.999999999989699e-04,3.999999999995391e-04,-6.862317950442145e-21,2.227513707489745e-20,-5.861726418632013e-12,2.752026852821027e-12,-3.031469995163591e-12,1.053356476924011e-11,
1311,-2.999999999992274e-04,3.999999999993957e-04,-5.550221718009432e-21,2.109120399933826e-21,2.327457993693917e-11,1.932843592990923e-11,1.054182309522460e-12,4.474064582799278e-12,
1312,-3.999999999996138e-04,3.999999999992525e-04,1.720381345746265e-20,-6.925266799639257e-21,3.614227693364791e-12,-1.160391697199615e-12,3.102798159411977e-12,7.829841377509193e-12,
1313,4.000000000003930e-04,2.666666666669337e-04,-2.255492392708035e-20,-5.381771788419987e-21,1.379172441854339e-11,1.873283579158314e-11,-6.213565376508461e-13,5.094989439469771e-12,
1314,3.000000000007860e-04,2.666666666668381e-04,-4.258510853618881e-20,2.149601474750321e-20,-1.487484691776879e-11,-1.720865154998033e-11,3.351806913735803e-12,7.098245023187110e-12,
1315,2.000000000010480e-04,2.666666666667424e-04,1.845618250281581e-20,1.946603736912033e-20,-9.164742017528606e-12,-3.946144007029953e-12,-1.569987159810374e-12,6.090419026886267e-12,
1316,1.000000000011791e-04,2.666666666666467e-04,1.269265367559966e-20,4.601444444984536e-21,4.279127971980623e-12,-8.125372681655447e-14,2.057581039784583e-13,4.379757316178215e-12,
1317,1.310247314020418e-15,2.666666666665511e-04,1.023110745315485e-20,-2.402042924013653e-20,3.180067357386272e-12,-1.002936423694307e-12,2.495939055384510e-12,6.512784942350645e-12,
1318,-9.999999999882098e-05,2.666666666664555e-04,2.773193275276866e-21,2.523909128722317e-20,9.760342155854679e-12,1.123593047636475e-11,-3.950992245953158e-13,1.673850196621241e-12,
1319,-1.999999999989519e-04,2.666666666663597e-04,2.419919435652256e-20,-4.818636863612075e-21,-1.213477365147451e-11,-1.023007717511370e-11,-9.476344899489656e-14,1.914102691112189e-12,
1320,-2.999999999992139e-04,2.666666666662640e-04,-6.011931666877669e-21,1.938945669122272e-20,3.446668059603917e-12,7.311558339817318e-12,-9.939712337992401e-13,4.346181327621934e-12,
1321,-3.999999999996069e-04,2.666666666661684e-04,-4.635488850276602e-20,-3.713656285040077e-20,1.131718420318114e-12,3.284160605970813e-12,7.377941602550357e-13,2.609668226844766e-12,
1322,4.000000000003998e-04,1.333333333334653e-04,-3.213735972252563e-20,9.540740769787575e-21,1.389475001584248e-11,8.458147224218960e-12,5.807296742425741e-13,5.559283922599406e-12,
1323,3.000000000007995e-04,1.333333333334176e-04,1.374106644896448e-20,-4.112903858765549e-21,-3.284160605970830e-12,-5.684348500915419e-12,-2.345686699663368e-12,5.269714062731396e-12,
1324,2.000000000010661e-04,1.333333333333700e-04,4.593258807216394e-21,1.375639641651041e-20,-1.255989727848300e-11,-1.497495563751109e-11,3.359971365166746e-12,7.140737859386341e-12,
1325,1.000000000011994e-04,1.333333333333223e-04,1.195366385208270e-20,-1.088988412249842e-20,-1.356973510857630e-11,-1.507506435725339e-11,-2.287930194929089e-13,1.573340754572073e-12,
1326,1.332735615253546e-15,1.333333333332746e-04,-4.730987017886008e-21,3.204272387900383e-21,1.446459375484379e-11,1.693514944136367e-11,2.140627272092233e-13,2.507376478496343e-12,
1327,-9.999999999880065e-05,1.333333333332270e-04,-5.098789732419075e-21,-1.366355168312355e-20,-2.019355364800975e-11,-2.350347065330534e-11,3.434126938566461e-13,3.380425963566179e-12,
1328,-1.999999999989337e-04,1.333333333331794e-04,1.801757758420558e-20,1.053251052621490e-20,8.554271415119011e-12,9.175627952769858e-12,-1.131220354212848e-12,2.346214377678054e-12,
1329,-2.999999999992003e-04,1.333333333331317e-04,-1.557754670042535e-21,6.067089995567565e-21,1.524155633972873e-11,1.038169869350553e-11,-2.712858428191134e-12,7.283997511475747e-12,
1330,-3.999999999996002e-04,1.333333333330841e-04,2.560590948734346e-20,-6.519860745544496e-21,-1.005668378623936e-11,-6.258176768758990e-12,-3.549498263156537e-12,8.051360583308433e-12,
