"PointID","x","y","Displacement_1","Displacement_2","Sxx","Syy","Sxy","Von_Mises_Stress"
0,0.000000000000000e+00,-5.000000000000000e-04,0.000000000000000e+00,0.000000000000000e+00,-1.248124472517334e+03,-8.327720608005974e+02,-1.995744402172697e+02,5.760533435985384e+02,
1,1.600000000000000e-02,-5.000000000000000e-04,-6.876519977085555e-04,-3.793611549258380e-03,2.573572259915623e-02,2.652700276122531e-02,-1.280285638436095e-03,2.680046559078214e-03,
2,1.600000000000000e-02,5.000000000000000e-04,-3.713264764307828e-04,-3.844981923382974e-03,-1.273128217214745e-01,-9.249305206505725e-01,-3.008358608098610e-01,9.991010230411084e-01,
3,0.000000000000000e+00,5.000000000000000e-04,0.000000000000000e+00,0.000000000000000e+00,1.176171554321788e+03,7.840752693426064e+02,-2.094337877026591e+02,5.737504182311377e+02,
4,1.333333333330364e-04,-5.000000000000000e-04,-3.591552118495481e-06,-3.548295289260304e-06,-6.886138659708886e+02,1.878233844298247e-01,-5.015778315080286e+01,6.960682294869897e+02,
5,2.666666666660728e-04,-5.000000000000000e-04,-7.285243957106512e-06,-5.473808023992096e-06,-7.500966196004445e+02,-7.970638392174014e+01,1.430163204855500e+01,6.710001600673116e+02,
6,3.999999999991092e-04,-5.000000000000000e-04,-1.097817885092193e-05,-8.136702626962512e-06,-7.488634739426698e+02,-7.339871501769429e+01,1.582336662574786e+01,6.762057055919202e+02,
7,5.333333333321455e-04,-5.000000000000000e-04,-1.473801552564511e-05,-1.167284186171867e-05,-7.590790273959396e+02,-8.511082448652370e+01,1.941792571039019e+01,6.750861884889399e+02,
8,6.666666666651819e-04,-5.000000000000000e-04,-1.850866138597186e-05,-1.617036508170828e-05,-7.544306693093931e+02,-8.782355620282800e+01,2.286828969296084e+01,6.681742870974558e+02,
9,7.999999999982184e-04,-5.000000000000000e-04,-2.227162958847805e-05,-2.162993197834059e-05,-7.445029329301633e+02,-8.833949215100752e+01,2.680271377353274e+01,6.583494534649849e+02,
10,9.333333333312547e-04,-5.000000000000000e-04,-2.602105902554262e-05,-2.803886280149283e-05,-7.320754932982272e+02,-8.762708109167792e+01,3.078072711827875e+01,6.473820886024437e+02,
11,1.066666666664291e-03,-5.000000000000000e-04,-2.975899109889559e-05,-3.538010989341413e-05,-7.188829323421046e+02,-8.657474008270150e+01,3.464598215193192e+01,6.360935672646299e+02,
12,1.199999999997328e-03,-5.000000000000000e-04,-3.349023309497468e-05,-4.363671960155056e-05,-7.055352743004777e+02,-8.545051476843173e+01,3.831658309266058e+01,6.248021696213149e+02,
13,1.333333333330364e-03,-5.000000000000000e-04,-3.722039108890556e-05,-5.279230497562556e-05,-6.922471578318068e+02,-8.435363750833736e+01,4.176792168970025e+01,6.136063633799507e+02,
14,1.466666666663400e-03,-5.000000000000000e-04,-4.095503852299306e-05,-6.283096817794090e-05,-6.790696720969979e+02,-8.330328691733423e+01,4.499632499938369e+01,6.025249063431685e+02,
15,1.599999999996437e-03,-5.000000000000000e-04,-4.469946451151264e-05,-7.373711182518525e-05,-6.660073715427040e+02,-8.229695998632292e+01,4.800620392143297e+01,5.915540778484285e+02,
16,1.733333333329473e-03,-5.000000000000000e-04,-4.845862220553043e-05,-8.549532125796838e-05,-6.530556742919516e+02,-8.132722088448199e+01,5.080418843245247e+01,5.806872537647247e+02,
17,1.866666666662509e-03,-5.000000000000000e-04,-5.223713982824627e-05,-9.809030652419089e-05,-6.402117143372718e+02,-8.038719008148271e+01,5.339729031086045e+01,5.699198017338842e+02,
18,1.999999999995546e-03,-5.000000000000000e-04,-5.603934255916138e-05,-1.115068806012128e-04,-6.274755560344884e+02,-7.947131047134903e+01,5.579239278991386e+01,5.592493339541154e+02,
19,2.133333333328582e-03,-5.000000000000000e-04,-5.986927178053105e-05,-1.257299546044370e-04,-6.148492612087397e+02,-7.857510102320958e+01,5.799618893777948e+01,5.486749553314073e+02,
20,2.266666666661619e-03,-5.000000000000000e-04,-6.373069987038623e-05,-1.407445398340440e-04,-6.023358662224773e+02,-7.769479548935794e+01,6.001521479549547e+01,5.381965785173589e+02,
21,2.399999999994655e-03,-5.000000000000000e-04,-6.762714173787249e-05,-1.565357519553126e-04,-5.899387207927883e+02,-7.682710155029315e+01,6.185588510635267e+01,5.278144900349141e+02,
22,2.533333333327691e-03,-5.000000000000000e-04,-7.156186442522782e-05,-1.730888154561490e-04,-5.776611362697578e+02,-7.596906782225302e+01,6.352451356559284e+01,5.175291168988625e+02,
23,2.666666666660728e-03,-5.000000000000000e-04,-7.553789567347214e-05,-1.903890677706876e-04,-5.655062252411344e+02,-7.511801728645757e+01,6.502732076375378e+01,5.073409152471816e+02,
24,2.799999999993764e-03,-5.000000000000000e-04,-7.955803195643470e-05,-2.084219629476575e-04,-5.534768419952126e+02,-7.427151435996200e+01,6.637043508750364e+01,4.972503239303379e+02,
25,2.933333333326801e-03,-5.000000000000000e-04,-8.362484623774329e-05,-2.271730749025828e-04,-5.415755707174134e+02,-7.342734719132274e+01,6.755989031156662e+01,4.872577493547723e+02,
26,3.066666666659837e-03,-5.000000000000000e-04,-8.774069556672130e-05,-2.466281003270542e-04,-5.298047337012646e+02,-7.258351605500999e+01,6.860162194656900e+01,4.773635637548426e+02,
27,3.199999999992873e-03,-5.000000000000000e-04,-9.190772855900851e-05,-2.667728613206807e-04,-5.181664063924062e+02,-7.173822381001524e+01,6.950146336010599e+01,4.675681082372932e+02,
28,3.333333333325910e-03,-5.000000000000000e-04,-9.612789277504116e-05,-2.875933077944544e-04,-5.066624335940229e+02,-7.088986683481534e+01,7.026514211918222e+01,4.578716967972834e+02,
29,3.466666666658946e-03,-5.000000000000000e-04,-1.004029419959475e-04,-3.090755196790054e-04,-4.952944447333033e+02,-7.003702592698625e+01,7.089827673536263e+01,4.482746198771324e+02,
30,3.599999999991982e-03,-5.000000000000000e-04,-1.047344433918840e-04,-3.312057089601662e-04,-4.840638677003715e+02,-6.917845710497922e+01,7.140637385857485e+01,4.387771471207559e+02,
31,3.733333333325019e-03,-5.000000000000000e-04,-1.091237845772947e-04,-3.539702215570607e-04,-4.729719413536271e+02,-6.831308238126405e+01,7.179482592513136e+01,4.293795293947937e+02,
32,3.866666666658056e-03,-5.000000000000000e-04,-1.135721805483918e-04,-3.773555390536508e-04,-4.620197269636741e+02,-6.743998060707048e+01,7.206890923163793e+01,4.200820002644649e+02,
33,3.999999999991091e-03,-5.000000000000000e-04,-1.180806804993345e-04,-4.013482802922523e-04,-4.512081188589335e+02,-6.655837847869708e+01,7.223378241219066e+01,4.108847771101651e+02,
34,4.133333333324164e-03,-5.000000000000000e-04,-1.226501745146335e-04,-4.259352028362520e-04,-4.405378544634591e+02,-6.566764175771966e+01,7.229448528491365e+01,4.017880620233616e+02,
35,4.266666666657233e-03,-5.000000000000000e-04,-1.272814001360891e-04,-4.511032043085607e-04,-4.300095238620621e+02,-6.476726675166664e+01,7.225593804373659e+01,3.927920425739521e+02,
36,4.399999999990304e-03,-5.000000000000000e-04,-1.319749488031912e-04,-4.768393236121061e-04,-4.196235789640355e+02,-6.385687206702335e+01,7.212294076540218e+01,3.838968925049322e+02,
37,4.533333333323375e-03,-5.000000000000000e-04,-1.367312721662740e-04,-5.031307420383177e-04,-4.093803423189894e+02,-6.293619065492470e+01,7.190017320825888e+01,3.751027723861075e+02,
38,4.666666666656447e-03,-5.000000000000000e-04,-1.415506882720641e-04,-5.299647842695155e-04,-3.992800155964571e+02,-6.200506214578480e+01,7.159219487998382e+01,3.664098302394294e+02,
39,4.799999999989517e-03,-5.000000000000000e-04,-1.464333876214246e-04,-5.573289192809299e-04,-3.893226877485702e+02,-6.106342547635310e+01,7.120344534885130e+01,3.578182021441721e+02,
40,4.933333333322587e-03,-5.000000000000000e-04,-1.513794390993414e-04,-5.852107611479336e-04,-3.795083428565092e+02,-6.011131180515450e+01,7.073824478217992e+01,3.493280128244434e+02,
41,5.066666666655659e-03,-5.000000000000000e-04,-1.563887957772722e-04,-6.135980697639069e-04,-3.698368676726560e+02,-5.914883771682270e+01,7.020079468687260e+01,3.409393762188676e+02,
42,5.199999999988730e-03,-5.000000000000000e-04,-1.614613005881958e-04,-6.424787514739840e-04,-3.603080588505131e+02,-5.817619870395772e+01,6.959517883787591e+01,3.326523960315354e+02,
43,5.333333333321801e-03,-5.000000000000000e-04,-1.665966918747222e-04,-6.718408596297751e-04,-3.509216298801889e+02,-5.719366293042992e+01,6.892536437435840e+01,3.244671662664668e+02,
44,5.466666666654871e-03,-5.000000000000000e-04,-1.717946088108458e-04,-7.016725950699514e-04,-3.416772177199970e+02,-5.620156526060084e+01,6.819520304650030e+01,3.163837717414273e+02,
45,5.599999999987943e-03,-5.000000000000000e-04,-1.770545966979274e-04,-7.319623065314250e-04,-3.325743891437156e+02,-5.520030156112097e+01,6.740843260113506e+01,3.084022885862619e+02,
46,5.733333333321013e-03,-5.000000000000000e-04,-1.823761121356702e-04,-7.626984909956763e-04,-3.236126467965184e+02,-5.419032325635128e+01,6.656867828486835e+01,3.005227847204929e+02,
47,5.866666666654085e-03,-5.000000000000000e-04,-1.877585280688727e-04,-7.938697939746054e-04,-3.147914349804338e+02,-5.317213214711497e+01,6.567945445700573e+01,2.927453203145549e+02,
48,5.999999999987155e-03,-5.000000000000000e-04,-1.932011387109234e-04,-8.254650097401053e-04,-3.061101451567565e+02,-5.214627546721199e+01,6.474416629776812e+01,2.850699482338680e+02,
49,6.133333333320226e-03,-5.000000000000000e-04,-1.987031643449522e-04,-8.574730815014047e-04,-2.975681211911708e+02,-5.111334118832954e+01,6.376611159544088e+01,2.774967144638973e+02,
50,6.266666666653297e-03,-5.000000000000000e-04,-2.042637560037492e-04,-8.898831015340427e-04,-2.891646643437090e+02,-5.007395356425562e+01,6.274848260883634e+01,2.700256585213153e+02,
51,6.399999999986368e-03,-5.000000000000000e-04,-2.098820000295616e-04,-9.226843112641880e-04,-2.808990379936899e+02,-4.902876888914367e+01,6.169436798661466e+01,2.626568138459118e+02,
52,6.533333333319439e-03,-5.000000000000000e-04,-2.155569225149407e-04,-9.558661013118517e-04,-2.727704721394662e+02,-4.797847149671803e+01,6.060675474068199e+01,2.553902081790882e+02,
53,6.666666666652510e-03,-5.000000000000000e-04,-2.212874936259000e-04,-9.894180114963854e-04,-2.647781676482448e+02,-4.692376995918517e+01,5.948853025801900e+01,2.482258639253773e+02,
54,6.799999999985581e-03,-5.000000000000000e-04,-2.270726318086555e-04,-1.023329730807512e-03,-2.569213002847561e+02,-4.586539350503489e+01,5.834248434886815e+01,2.411637984992815e+02,
55,6.933333333318652e-03,-5.000000000000000e-04,-2.329112078813252e-04,-1.057591097344975e-03,-2.491990245142545e+02,-4.480408863129689e+01,5.717131131891648e+01,2.342040246586216e+02,
56,7.066666666651722e-03,-5.000000000000000e-04,-2.388020490119170e-04,-1.092192098229751e-03,-2.416104770951563e+02,-4.374061591765174e+01,5.597761205961369e+01,2.273465508205290e+02,
57,7.199999999984794e-03,-5.000000000000000e-04,-2.447439425840663e-04,-1.127122869489649e-03,-2.341547804612137e+02,-4.267574702225447e+01,5.476389615225854e+01,2.205913813679480e+02,
58,7.333333333317865e-03,-5.000000000000000e-04,-2.507356399519723e-04,-1.162373695921934e-03,-2.268310459054868e+02,-4.161026186301397e+01,5.353258397581210e+01,2.139385169384369e+02,
59,7.466666666650935e-03,-5.000000000000000e-04,-2.567758600859859e-04,-1.197935010935530e-03,-2.196383765765135e+02,-4.054494597746792e+01,5.228600881673437e+01,2.073879547024601e+02,
60,7.599999999984006e-03,-5.000000000000000e-04,-2.628632931103934e-04,-1.233797396375200e-03,-2.125758702785658e+02,-3.948058804075659e+01,5.102641897415579e+01,2.009396886289296e+02,
61,7.733333333317077e-03,-5.000000000000000e-04,-2.689966037349319e-04,-1.269951582329953e-03,-2.056426221045362e+02,-3.841797755843459e+01,4.975597985591513e+01,1.945937097371314e+02,
62,7.866666666650150e-03,-5.000000000000000e-04,-2.751744345815568e-04,-1.306388446927868e-03,-1.988377268911278e+02,-3.735790270810715e+01,4.847677606125106e+01,1.883500063375364e+02,
63,7.999999999983218e-03,-5.000000000000000e-04,-2.813954094080802e-04,-1.343099016119315e-03,-1.921602815066842e+02,-3.630114833018146e+01,4.719081344838219e+01,1.822085642614278e+02,
64,8.133333333316652e-03,-5.000000000000000e-04,-2.876581362302659e-04,-1.380074463450623e-03,-1.856093869882602e+02,-3.524849406913703e+01,4.590002117970620e+01,1.761693670778945e+02,
65,8.266666666650083e-03,-5.000000000000000e-04,-2.939612103439031e-04,-1.417306109829461e-03,-1.791841505193426e+02,-3.420071264667582e+01,4.460625374731369e+01,1.702323963023971e+02,
66,8.399999999983516e-03,-5.000000000000000e-04,-3.003032172486489e-04,-1.454785423284652e-03,-1.728836872609730e+02,-3.315856826818055e+01,4.331129297256214e+01,1.643976315929474e+02,
67,8.533333333316948e-03,-5.000000000000000e-04,-3.066827354750976e-04,-1.492504018720952e-03,-1.667071220545902e+02,-3.212281516431430e+01,4.201684997502764e+01,1.586650509357114e+02,
68,8.666666666650381e-03,-5.000000000000000e-04,-3.130983393167959e-04,-1.530453657670830e-03,-1.606535909706277e+02,-3.109419623813456e+01,4.072456711811552e+01,1.530346308234890e+02,
69,8.799999999983810e-03,-5.000000000000000e-04,-3.195486014688222e-04,-1.568626248044461e-03,-1.547222427491164e+02,-3.007344184692093e+01,3.943601991934858e+01,1.475063464216784e+02,
70,8.933333333317245e-03,-5.000000000000000e-04,-3.260320955746009e-04,-1.607013843879277e-03,-1.489122401020520e+02,-2.906126867779960e+01,3.815271893044333e+01,1.420801717287764e+02,
71,9.066666666650678e-03,-5.000000000000000e-04,-3.325473986825555e-04,-1.645608645090191e-03,-1.432227609092315e+02,-2.805837874643435e+01,3.687611158449433e+01,1.367560797233787e+02,
72,9.199999999984110e-03,-5.000000000000000e-04,-3.390930936143139e-04,-1.684402997221662e-03,-1.376529992946218e+02,-2.706545848138853e+01,3.560758400660330e+01,1.315340425071311e+02,
73,9.333333333317543e-03,-5.000000000000000e-04,-3.456677712460673e-04,-1.723389391202554e-03,-1.322021665992695e+02,-2.608317791684601e+01,3.434846279415704e+01,1.264140314374425e+02,
74,9.466666666650974e-03,-5.000000000000000e-04,-3.522700327047795e-04,-1.762560463104731e-03,-1.268694922513628e+02,-2.511218997140709e+01,3.310001675861787e+01,1.213960172533573e+02,
75,9.599999999984407e-03,-5.000000000000000e-04,-3.588984914808624e-04,-1.801908993906257e-03,-1.216542245358882e+02,-2.415312981591920e+01,3.186345863375557e+01,1.164799701923578e+02,
76,9.733333333317837e-03,-5.000000000000000e-04,-3.655517754590191e-04,-1.841427909259919e-03,-1.165556312797590e+02,-2.320661432909841e+01,3.063994674682523e+01,1.116658601016795e+02,
77,9.866666666651270e-03,-5.000000000000000e-04,-3.722285288688518e-04,-1.881110279267808e-03,-1.115730004362734e+02,-2.227324162395801e+01,2.943058665657074e+01,1.069536565421556e+02,
78,9.999999999984703e-03,-5.000000000000000e-04,-3.789274141569486e-04,-1.920949318262552e-03,-1.067056405985745e+02,-2.135359066049657e+01,2.823643275446283e+01,1.023433288857723e+02,
79,1.013333333331814e-02,-5.000000000000000e-04,-3.856471137820466e-04,-1.960938384595763e-03,-1.019528814224964e+02,-2.044822092196725e+01,2.705848983194148e+01,9.783484640580596e+01,
80,1.026666666665157e-02,-5.000000000000000e-04,-3.923863319349341e-04,-2.001070980434172e-03,-9.731407397943175e+01,-1.955767216234652e+01,2.589771461247388e+01,9.342817836250789e+01,
81,1.039999999998500e-02,-5.000000000000000e-04,-3.991437961847545e-04,-2.041340751563889e-03,-9.278859103907722e+01,-1.868246422364027e+01,2.475501725074828e+01,8.912329408142969e+01,
82,1.053333333331843e-02,-5.000000000000000e-04,-4.059182590533120e-04,-2.081741487203130e-03,-8.837582727367935e+01,-1.782309690147648e+01,2.363126279879107e+01,8.492016302878170e+01,
83,1.066666666665187e-02,-5.000000000000000e-04,-4.127084995190521e-04,-2.122267119823727e-03,-8.407519941182159e+01,-1.698004988499783e+01,2.252727263848255e+01,8.081875487868480e+01,
84,1.079999999998530e-02,-5.000000000000000e-04,-4.195133244523333e-04,-2.162911724981632e-03,-7.988614632116305e+01,-1.615378274179166e+01,2.144382588240614e+01,7.681903957557003e+01,
85,1.093333333331873e-02,-5.000000000000000e-04,-4.263315699836089e-04,-2.203669521156701e-03,-7.580812903059000e+01,-1.534473495090067e+01,2.038166074656712e+01,7.292098739586862e+01,
86,1.106666666665216e-02,-5.000000000000000e-04,-4.331621028061656e-04,-2.244534869601768e-03,-7.184063071293016e+01,-1.455332600041208e+01,1.934147588866420e+01,6.912456899997287e+01,
87,1.119999999998559e-02,-5.000000000000000e-04,-4.400038214150215e-04,-2.285502274201207e-03,-6.798315660032348e+01,-1.377995551711194e+01,1.832393172226535e+01,6.542975548415289e+01,
88,1.133333333331903e-02,-5.000000000000000e-04,-4.468556572836139e-04,-2.326566381338991e-03,-6.423523385517760e+01,-1.302500344262095e+01,1.732965169927986e+01,6.183651842544626e+01,
89,1.146666666665246e-02,-5.000000000000000e-04,-4.537165759798667e-04,-2.367721979776250e-03,-6.059641140010403e+01,-1.228883025616224e+01,1.635922356767608e+01,5.834482992457304e+01,
90,1.159999999998589e-02,-5.000000000000000e-04,-4.605855782233057e-04,-2.408964000538307e-03,-5.706625970348706e+01,-1.157177723244668e+01,1.541320060245618e+01,5.495466264616700e+01,
91,1.173333333331932e-02,-5.000000000000000e-04,-4.674617008847364e-04,-2.450287516811107e-03,-5.364437051682667e+01,-1.087416673243181e+01,1.449210281218844e+01,5.166598985246314e+01,
92,1.186666666665276e-02,-5.000000000000000e-04,-4.743440179301848e-04,-2.491687743846922e-03,-5.033035658533444e+01,-1.019630253449410e+01,1.359641812135782e+01,4.847878543733251e+01,
93,1.199999999998619e-02,-5.000000000000000e-04,-4.812316413106316e-04,-2.533160038879184e-03,-4.712385131885135e+01,-9.538470195460508e+00,1.272660353226842e+01,4.539302395810103e+01,
94,1.213333333331998e-02,-5.000000000000000e-04,-4.881237217991948e-04,-2.574699901046415e-03,-4.402450841954555e+01,-8.900937432487616e+00,1.188308626211101e+01,4.240868066014296e+01,
95,1.226666666665377e-02,-5.000000000000000e-04,-4.950194497772540e-04,-2.616302971324404e-03,-4.103200150171098e+01,-8.283954553043753e+00,1.106626486109059e+01,3.952573150310245e+01,
96,1.239999999998757e-02,-5.000000000000000e-04,-5.019180559712679e-04,-2.657965032467601e-03,-3.814602365907049e+01,-7.687754887806158e+00,1.027651031461465e+01,3.674415318833871e+01,
97,1.253333333332136e-02,-5.000000000000000e-04,-5.088188121417512e-04,-2.699682008958252e-03,-3.536628701602861e+01,-7.112555260790222e+00,9.514167122036696e+00,3.406392317689114e+01,
98,1.266666666665516e-02,-5.000000000000000e-04,-5.157210317260254e-04,-2.741449966963631e-03,-3.269252225954741e+01,-6.558556483837192e+00,8.779554360448747e+00,3.148501971157540e+01,
99,1.279999999998895e-02,-5.000000000000000e-04,-5.226240704363651e-04,-2.783265114300844e-03,-3.012447813409019e+01,-6.025943857833265e+00,8.072966735250798e+00,2.900742184162174e+01,
100,1.293333333332274e-02,-5.000000000000000e-04,-5.295273268150798e-04,-2.825123800408953e-03,-2.766192092778085e+01,-5.514887710062335e+00,7.394675611327072e+00,2.663110943865743e+01,
101,1.306666666665654e-02,-5.000000000000000e-04,-5.364302427481623e-04,-2.867022516328000e-03,-2.530463393673474e+01,-5.025543938879730e+00,6.744930034185209e+00,2.435606322469454e+01,
102,1.319999999999033e-02,-5.000000000000000e-04,-5.433323039390412e-04,-2.908957894684555e-03,-2.305241690470880e+01,-4.558054573568191e+00,6.123957733675780e+00,2.218226479264239e+01,
103,1.333333333332413e-02,-5.000000000000000e-04,-5.502330403440792e-04,-2.950926709683439e-03,-2.090508545046050e+01,-4.112548354076441e+00,5.531966123586256e+00,2.010969663877251e+01,
104,1.346666666665792e-02,-5.000000000000000e-04,-5.571320265713103e-04,-2.992925877105136e-03,-1.886247049137248e+01,-3.689141325811483e+00,4.969143279779831e+00,1.813834219840358e+01,
105,1.359999999999171e-02,-5.000000000000000e-04,-5.640288822441168e-04,-3.034952454308541e-03,-1.692441763192494e+01,-3.287937436120386e+00,4.435658919965089e+00,1.626818589602520e+01,
106,1.373333333332551e-02,-5.000000000000000e-04,-5.709232723313095e-04,-3.077003640238542e-03,-1.509078656050381e+01,-2.909029154181220e+00,3.931665362940937e+00,1.449921320662239e+01,
107,1.386666666665930e-02,-5.000000000000000e-04,-5.778149074452930e-04,-3.119076775438034e-03,-1.336145041953258e+01,-2.552498088162244e+00,3.457298484937330e+00,1.283141074697697e+01,
108,1.399999999999309e-02,-5.000000000000000e-04,-5.847035441098283e-04,-3.161169342063966e-03,-1.173629514836839e+01,-2.218415599614554e+00,3.012678660407869e+00,1.126476639562909e+01,
109,1.413333333332689e-02,-5.000000000000000e-04,-5.915889849988537e-04,-3.203278963907004e-03,-1.021521875400753e+01,-1.906843375445932e+00,2.597911673549595e+00,9.799269446512309e+00,
110,1.426666666666068e-02,-5.000000000000000e-04,-5.984710791476006e-04,-3.245403406414414e-03,-8.798130420528377e+00,-1.617833911002246e+00,2.213089576578147e+00,8.434910779643642e+00,
111,1.439999999999447e-02,-5.000000000000000e-04,-6.053497221365314e-04,-3.287540576715695e-03,-7.484949267367181e+00,-1.351430778888116e+00,1.858291454425131e+00,7.171683035862113e+00,
112,1.453333333332827e-02,-5.000000000000000e-04,-6.122248562472843e-04,-3.329688523649149e-03,-6.275602527541599e+00,-1.107668608991377e+00,1.533584061097034e+00,6.009580790396726e+00,
113,1.466666666666206e-02,-5.000000000000000e-04,-6.190964705874856e-04,-3.371845437783994e-03,-5.170023352097896e+00,-8.865731232441785e-01,1.239022505979619e+00,4.948601109845389e+00,
114,1.479999999999586e-02,-5.000000000000000e-04,-6.259646011805410e-04,-3.414009651421546e-03,-4.168150528619622e+00,-6.881632755769593e-01,9.746519837912883e-01,3.988746324269393e+00,
115,1.493333333332965e-02,-5.000000000000000e-04,-6.328293310261351e-04,-3.456179638532631e-03,-3.269940197873375e+00,-5.124633662332831e-01,7.405141403250111e-01,3.130035661956112e+00,
116,1.506666666666344e-02,-5.000000000000000e-04,-6.396907901917350e-04,-3.498354014536616e-03,-2.475421037907363e+00,-3.595479113019304e-01,5.366685488841679e-01,2.372545386991955e+00,
117,1.519999999999724e-02,-5.000000000000000e-04,-6.465491561846473e-04,-3.540531535755743e-03,-1.784879230513722e+00,-2.296783067974986e-01,3.632547750250792e-01,1.716527319748183e+00,
118,1.533333333333103e-02,-5.000000000000000e-04,-6.534046554093075e-04,-3.582711098393990e-03,-1.199360231390463e+00,-1.236494478826292e-01,2.206483372287679e-01,1.162710817289629e+00,
119,1.546666666666482e-02,-5.000000000000000e-04,-6.602575678253041e-04,-3.624891737408155e-03,-7.218773506927372e-01,-4.357404630173271e-02,1.097825880658207e-01,7.129545843302184e-01,
120,1.559999999999862e-02,-5.000000000000000e-04,-6.671082398683933e-04,-3.667072628340375e-03,-3.594779438047990e-01,5.986616906650477e-03,3.265804412609441e-02,3.712553521776897e-01,
121,1.573333333333242e-02,-5.000000000000000e-04,-6.739571137187219e-04,-3.709253103877712e-03,-1.257813828053546e-01,1.743771992871323e-02,-7.793916144821114e-03,1.440648878229580e-01,
122,1.586666666666621e-02,-5.000000000000000e-04,-6.808047841582260e-04,-3.751432730645854e-03,-2.395873287927738e-02,-2.015111708939925e-03,-1.174913484582085e-02,3.215106823370584e-02,
123,1.600000000000000e-02,-4.000000000004066e-04,-6.560179016120023e-04,-3.798746959816889e-03,-3.049303237738160e-02,-2.489439265103219e-03,-6.360052381349113e-03,3.075715026415913e-02,
124,1.600000000000000e-02,-3.000000000008132e-04,-6.243841713727025e-04,-3.803882258077544e-03,-3.906754735126175e-02,-1.110031429968900e-02,-4.163293337528338e-02,8.783718284578648e-02,
125,1.600000000000000e-02,-2.000000000010842e-04,-5.927511121810223e-04,-3.809017644774219e-03,-5.484423007506724e-02,-8.140215042866611e-02,-9.916381851810810e-02,2.000979128973544e-01,
126,1.600000000000000e-02,-1.000000000012198e-04,-5.611187478513646e-04,-3.814153400335052e-03,-8.121850382224886e-02,-2.158090347563260e-01,-1.653333001160331e-01,3.570084194051310e-01,
127,1.600000000000000e-02,-1.355361135824129e-15,-5.294869134856106e-04,-3.819289770007772e-03,-1.094703357850230e-01,-3.904870846862297e-01,-2.292547523933701e-01,5.377744686602234e-01,
128,1.600000000000000e-02,9.999999999878032e-05,-4.978553362693385e-04,-3.824426910585176e-03,-1.290998948607197e-01,-5.737958555692571e-01,-2.816848307281837e-01,7.177324521853189e-01,
129,1.600000000000000e-02,1.999999999989157e-04,-4.662237038784828e-04,-3.829564860442185e-03,-1.308647819107961e-01,-7.328328233953306e-01,-3.150577368938150e-01,8.714419276551568e-01,
130,1.600000000000000e-02,2.999999999991868e-04,-4.345917371791120e-04,-3.834703522433603e-03,-1.110482025430767e-01,-8.387487080246565e-01,-3.251586755544187e-01,9.759409217936105e-01,
131,1.600000000000000e-02,3.999999999995934e-04,-4.029592868401215e-04,-3.839842657994960e-03,-8.576437105375370e-02,-8.812257957625156e-01,-3.153200270639567e-01,1.015118592121212e+00,
132,1.586666666666649e-02,5.000000000000000e-04,-3.644825402089899e-04,-3.802802012154222e-03,-9.527665244112477e-02,-8.787042572488033e-01,-3.139261729286070e-01,1.003970806434681e+00,
133,1.573333333333297e-02,5.000000000000000e-04,-3.576384844734557e-04,-3.760621180096329e-03,-3.330984214088837e-02,-8.582474931364099e-01,-3.710636758878776e-01,1.109628376657566e+00,
134,1.559999999999946e-02,5.000000000000000e-04,-3.507948821528903e-04,-3.718438946742405e-03,1.592259145924075e-01,-8.055440772134688e-01,-4.664792767431839e-01,1.342085243049966e+00,
135,1.546666666666594e-02,5.000000000000000e-04,-3.439524692933306e-04,-3.676255301901658e-03,4.830559462362593e-01,-7.173050940173773e-01,-5.951393601894774e-01,1.690452619609836e+00,
136,1.533333333333243e-02,5.000000000000000e-04,-3.371120003378139e-04,-3.634070514155510e-03,9.239126918456242e-01,-6.004961360029623e-01,-7.549639076433944e-01,2.145624450317305e+00,
137,1.519999999999892e-02,5.000000000000000e-04,-3.302742475456801e-04,-3.591885035350159e-03,1.473726357702167e+00,-4.586743609658921e-01,-9.453042244818044e-01,2.703437227827088e+00,
138,1.506666666666540e-02,5.000000000000000e-04,-3.234400144745533e-04,-3.549699469850413e-03,2.128920334943018e+00,-2.934103306889880e-01,-1.165965345046201e+00,3.362378116312326e+00,
139,1.493333333333189e-02,5.000000000000000e-04,-3.166101452090697e-04,-3.507514565399823e-03,2.888193408184216e+00,-1.052684854875285e-01,-1.416897565882887e+00,4.122039417288998e+00,
140,1.479999999999837e-02,5.000000000000000e-04,-3.097855287411059e-04,-3.465331211324934e-03,3.751156107221391e+00,1.055632622510820e-01,-1.698080945211145e+00,4.982395285126966e+00,
141,1.466666666666486e-02,5.000000000000000e-04,-3.029671007065740e-04,-3.423150438592214e-03,4.717736495277361e+00,3.390193923112731e-01,-2.009492603488967e+00,5.943517944930863e+00,
142,1.453333333333135e-02,5.000000000000000e-04,-2.961558439474628e-04,-3.380973420155559e-03,5.787954470771412e+00,5.950609660504824e-01,-2.351099079617601e+00,7.005484314455907e+00,
143,1.439999999999783e-02,5.000000000000000e-04,-2.893527886300998e-04,-3.338801471233643e-03,6.961851118285591e+00,8.736463206591136e-01,-2.722855567026992e+00,8.168354021062113e+00,
144,1.426666666666432e-02,5.000000000000000e-04,-2.825590122158758e-04,-3.296636049501596e-03,8.239472166861068e+00,1.174723875555052e+00,-3.124706076322725e+00,9.432169457401830e+00,
145,1.413333333333080e-02,5.000000000000000e-04,-2.757756393861446e-04,-3.254478755237727e-03,9.620867120469992e+00,1.498231163299500e+00,-3.556583266172212e+00,1.079696035973013e+01,
146,1.399999999999729e-02,5.000000000000000e-04,-2.690038419483717e-04,-3.212331331457247e-03,1.110609138339965e+01,1.844094905475706e+00,-4.018407887054271e+00,1.226274791977865e+01,
147,1.386666666666378e-02,5.000000000000000e-04,-2.622448387270460e-04,-3.170195664049541e-03,1.269520816773031e+01,2.212230916882583e+00,-4.510088008343285e+00,1.382954762144440e+01,
148,1.373333333333026e-02,5.000000000000000e-04,-2.554998954369084e-04,-3.128073781926363e-03,1.438828984073465e+01,2.602543755060381e+00,-5.031518137403371e+00,1.549737106299203e+01,
149,1.359999999999675e-02,5.000000000000000e-04,-2.487703245356724e-04,-3.085967857183823e-03,1.618541885778518e+01,3.014926191238716e+00,-5.582578296505702e+00,1.726622711613687e+01,
150,1.346666666666323e-02,5.000000000000000e-04,-2.420574850537936e-04,-3.043880205279362e-03,1.808668851371548e+01,3.449258619224808e+00,-6.163133083527047e+00,1.913612268818299e+01,
151,1.333333333332972e-02,5.000000000000000e-04,-2.353627823992747e-04,-3.001813285224412e-03,2.009220359289375e+01,3.905408423599709e+00,-6.773030723587841e+00,2.110706323919413e+01,
152,1.319999999999620e-02,5.000000000000000e-04,-2.286876681357008e-04,-2.959769699793155e-03,2.220208100843377e+01,4.383229368469197e+00,-7.412102111744796e+00,2.317905314344818e+01,
153,1.306666666666269e-02,5.000000000000000e-04,-2.220336397318585e-04,-2.917752195747918e-03,2.441645041340985e+01,4.882560981301033e+00,-8.080159848273894e+00,2.535209594965439e+01,
154,1.293333333332918e-02,5.000000000000000e-04,-2.154022402811848e-04,-2.875763664081629e-03,2.673545478778605e+01,5.403227943902546e+00,-8.776997264579558e+00,2.762619456328816e+01,
155,1.279999999999566e-02,5.000000000000000e-04,-2.087950581894398e-04,-2.833807140277824e-03,2.915925102846894e+01,5.945039505741391e+00,-9.502387442321311e+00,3.000135138686055e+01,
156,1.266666666666215e-02,5.000000000000000e-04,-2.022137268288964e-04,-2.791885804588680e-03,3.168801051801745e+01,6.507788904810706e+00,-1.025608221716552e+01,3.247756841685101e+01,
157,1.253333333332863e-02,5.000000000000000e-04,-1.956599241573140e-04,-2.750002982331494e-03,3.432191968149185e+01,7.091252809476897e+00,-1.103781117406713e+01,3.505484731605740e+01,
158,1.239999999999512e-02,5.000000000000000e-04,-1.891353723001017e-04,-2.708162144204093e-03,3.706118051158843e+01,7.695190762384559e+00,-1.184728062947642e+01,3.773318946504014e+01,
159,1.226666666666161e-02,5.000000000000000e-04,-1.826418370938302e-04,-2.666366906619549e-03,3.990601109467927e+01,8.319344662329829e+00,-1.268417259782890e+01,4.051259599525270e+01,
160,1.213333333332809e-02,5.000000000000000e-04,-1.761811275894695e-04,-2.624621032060688e-03,4.285664609854700e+01,8.963438248067174e+00,-1.354814374629827e+01,4.339306781361825e+01,
161,1.199999999999458e-02,5.000000000000000e-04,-1.697550955135491e-04,-2.582928429454722e-03,4.591333724878039e+01,9.627176611988165e+00,-1.443882433157413e+01,4.637460561634264e+01,
162,1.186666666666143e-02,5.000000000000000e-04,-1.633656346855172e-04,-2.541293154568503e-03,4.907635376954691e+01,1.031024573372726e+01,-1.535581712068664e+01,4.945720988916310e+01,
163,1.173333333332827e-02,5.000000000000000e-04,-1.570146803895022e-04,-2.499719410424223e-03,5.234598280607350e+01,1.101231203551320e+01,-1.629869629264986e+01,5.264088090761042e+01,
164,1.159999999999512e-02,5.000000000000000e-04,-1.507042086987719e-04,-2.458211547737008e-03,5.572252981857205e+01,1.173302197093783e+01,-1.726700632368548e+01,5.592561872886031e+01,
165,1.146666666666197e-02,5.000000000000000e-04,-1.444362357509984e-04,-2.416774065373557e-03,5.920631893095811e+01,1.247200162815161e+01,-1.826026084922707e+01,5.931142317367423e+01,
166,1.133333333332882e-02,5.000000000000000e-04,-1.382128169725620e-04,-2.375411610832710e-03,6.279769327187199e+01,1.322885638298118e+01,-1.927794150756062e+01,6.279829381116318e+01,
167,1.119999999999566e-02,5.000000000000000e-04,-1.320360462500767e-04,-2.334128980748089e-03,6.649701525094119e+01,1.400317056013626e+01,-2.031949675964319e+01,6.638622993274245e+01,
168,1.106666666666251e-02,5.000000000000000e-04,-1.259080550472322e-04,-2.292931121413013e-03,7.030466682240113e+01,1.479450715149787e+01,-2.138434068448074e+01,7.007523052212478e+01,
169,1.093333333332936e-02,5.000000000000000e-04,-1.198310114651723e-04,-2.251823129327881e-03,7.422104969128034e+01,1.560240755324101e+01,-2.247185175265509e+01,7.386529422455955e+01,
170,1.079999999999620e-02,5.000000000000000e-04,-1.138071192444173e-04,-2.210810251770220e-03,7.824658548391670e+01,1.642639135232699e+01,-2.358137157328571e+01,7.775641930784177e+01,
171,1.066666666666305e-02,5.000000000000000e-04,-1.078386167065331e-04,-2.169897887387496e-03,8.238171587001435e+01,1.726595614810816e+01,-2.471220361206054e+01,8.174860361875776e+01,
172,1.053333333332990e-02,5.000000000000000e-04,-1.019277756335363e-04,-2.129091586812743e-03,8.662690264041501e+01,1.812057742430009e+01,-2.586361188542597e+01,8.584184453782369e+01,
173,1.039999999999675e-02,5.000000000000000e-04,-9.607690008310807e-05,-2.088397053303132e-03,9.098262772612298e+01,1.898970845948349e+01,-2.703481962372100e+01,9.003613892699637e+01,
174,1.026666666666359e-02,5.000000000000000e-04,-9.028832513769480e-05,-2.047820143401395e-03,9.544939316671835e+01,1.987278029267701e+01,-2.822500790603810e+01,9.433148307270677e+01,
175,1.013333333333044e-02,5.000000000000000e-04,-8.456441558541114e-05,-2.007366867620138e-03,1.000277210242974e+02,2.076920174081494e+01,-2.943331426194595e+01,9.872787262359117e+01,
176,9.999999999997289e-03,5.000000000000000e-04,-7.890756453083015e-05,-1.967043391148861e-03,1.047181532289543e+02,2.167835946877359e+01,-3.065883124727172e+01,1.032253025257281e+02,
177,9.866666666664137e-03,5.000000000000000e-04,-7.332019193353552e-05,-1.926856034583634e-03,1.095212513649087e+02,2.259961811915909e+01,-3.190060498146340e+01,1.078237669479325e+02,
178,9.733333333330985e-03,5.000000000000000e-04,-6.780474307242029e-05,-1.886811274679164e-03,1.144375963846408e+02,2.353232050255438e+01,-3.315763365757130e+01,1.125232592057174e+02,
179,9.599999999997832e-03,5.000000000000000e-04,-6.236368693363382e-05,-1.846915745123001e-03,1.194677882588087e+02,2.447578785880629e+01,-3.442886601471498e+01,1.173237716757812e+02,
180,9.466666666664680e-03,5.000000000000000e-04,-5.699951452005638e-05,-1.807176237331600e-03,1.246124455389194e+02,2.542932017544276e+01,-3.571319977948920e+01,1.222252957076642e+02,
181,9.333333333331527e-03,5.000000000000000e-04,-5.171473708016779e-05,-1.767599701267823e-03,1.298722048507654e+02,2.639219659065997e+01,-3.700948007260871e+01,1.272278215269395e+02,
182,9.199999999998374e-03,5.000000000000000e-04,-4.651188425412638e-05,-1.728193246279454e-03,1.352477202965539e+02,2.736367586151113e+01,-3.831649777916270e+01,1.323313381323736e+02,
183,9.066666666665221e-03,5.000000000000000e-04,-4.139350213491665e-05,-1.688964141958178e-03,1.407396627759428e+02,2.834299692153650e+01,-3.963298788509641e+01,1.375358331853479e+02,
184,8.933333333332068e-03,5.000000000000000e-04,-3.636215124228270e-05,-1.649919819018485e-03,1.463487192096087e+02,2.932937951572056e+01,-4.095762778107677e+01,1.428412928960198e+02,
185,8.799999999998916e-03,5.000000000000000e-04,-3.142040440725757e-05,-1.611067870195762e-03,1.520755916660672e+02,3.032202492445860e+01,-4.228903552622214e+01,1.482477018953604e+02,
186,8.666666666665764e-03,5.000000000000000e-04,-2.657084456498757e-05,-1.572416051162876e-03,1.579209963908385e+02,3.132011678540233e+01,-4.362576808436182e+01,1.537550431064693e+02,
187,8.533333333332610e-03,5.000000000000000e-04,-2.181606245357253e-05,-1.533972281464391e-03,1.638856627248833e+02,3.232282200494942e+01,-4.496631951957325e+01,1.593632976028173e+02,
188,8.399999999999460e-03,5.000000000000000e-04,-1.715865421659391e-05,-1.495744645467488e-03,1.699703319144452e+02,3.332929177626445e+01,-4.630911916293822e+01,1.650724444619173e+02,
189,8.266666666666304e-03,5.000000000000000e-04,-1.260121890699314e-05,-1.457741393328578e-03,1.761757558008752e+02,3.433866270292697e+01,-4.765252974566482e+01,1.708824606070555e+02,
190,8.133333333333154e-03,5.000000000000000e-04,-8.146355889901228e-06,-1.419970941974502e-03,1.825026953916664e+02,3.535005803169146e+01,-4.899484549895088e+01,1.767933206426661e+02,
191,8.000000000000000e-03,5.000000000000000e-04,-3.796662142068121e-06,-1.382441876097081e-03,1.889519193029180e+02,3.636258900669571e+01,-5.033429022715273e+01,1.828049966793429e+02,
192,7.866666666666848e-03,5.000000000000000e-04,4.452705545677339e-07,-1.345162949159725e-03,1.955242020724257e+02,3.737535634304977e+01,-5.166901534919716e+01,1.889174581507920e+02,
193,7.733333333333694e-03,5.000000000000000e-04,4.576858527598656e-06,-1.308143084414635e-03,2.022203223225876e+02,3.838745182306948e+01,-5.299709791658447e+01,1.951306716188720e+02,
194,7.600000000000542e-03,5.000000000000000e-04,8.595529239608482e-06,-1.271391375929079e-03,2.090410607924457e+02,3.939796003413778e+01,-5.431653860340552e+01,2.014446005687776e+02,
195,7.466666666667390e-03,5.000000000000000e-04,1.249872442687798e-05,-1.234917089619075e-03,2.159871982095073e+02,4.040596023925851e+01,-5.562525967905620e+01,2.078592051957644e+02,
196,7.333333333334238e-03,5.000000000000000e-04,1.628390335383245e-05,-1.198729664288674e-03,2.230595130096045e+02,4.141052839297802e+01,-5.692110295760151e+01,2.143744421797778e+02,
197,7.200000000001082e-03,5.000000000000000e-04,1.994854618574539e-05,-1.162838712672940e-03,2.302587788888191e+02,4.241073930949978e+01,-5.820182773480168e+01,2.209902644472820e+02,
198,7.066666666667932e-03,5.000000000000000e-04,2.349015748224838e-05,-1.127254022482582e-03,2.375857621894639e+02,4.340566898473728e+01,-5.946510871113112e+01,2.277066209250466e+02,
199,6.933333333334780e-03,5.000000000000000e-04,2.690626981419602e-05,-1.091985557448025e-03,2.450412191073556e+02,4.439439708346798e+01,-6.070853390771804e+01,2.345234562792895e+02,
200,6.800000000001628e-03,5.000000000000000e-04,3.019444750643637e-05,-1.057043458360604e-03,2.526258927175703e+02,4.537600959517819e+01,-6.192960257812307e+01,2.414407106437982e+02,
201,6.666666666668472e-03,5.000000000000000e-04,3.335229050907190e-05,-1.022438044108383e-03,2.603405098040650e+02,4.634960166201452e+01,-6.312572312274847e+01,2.484583193345296e+02,
202,6.533333333335322e-03,5.000000000000000e-04,3.637743839979890e-05,-9.881798127039801e-04,2.681857775026615e+02,4.731428059541547e+01,-6.429421100854920e+01,2.555762125529193e+02,
203,6.400000000002170e-03,5.000000000000000e-04,3.926757451986393e-05,-9.542794423015569e-04,2.761623797303221e+02,4.826916907527369e+01,-6.543228670399593e+01,2.627943150753493e+02,
204,6.266666666669017e-03,5.000000000000000e-04,4.202043024628397e-05,-9.207477922000562e-04,2.842709734073241e+02,4.921340854727910e+01,-6.653707363024000e+01,2.701125459267640e+02,
205,6.133333333335862e-03,5.000000000000000e-04,4.463378940283877e-05,-8.875959038295044e-04,2.925121844645054e+02,5.014616282442388e+01,-6.760559614231514e+01,2.775308180449006e+02,
206,6.000000000002711e-03,5.000000000000000e-04,4.710549281245973e-05,-8.548350017170954e-04,3.008866036138321e+02,5.106662189006073e+01,-6.863477754299906e+01,2.850490379250093e+02,
207,5.866666666669559e-03,5.000000000000000e-04,4.943344299354503e-05,-8.224764944295240e-04,3.093947819009035e+02,5.197400592639972e+01,-6.962143813865173e+01,2.926671052532076e+02,
208,5.733333333336407e-03,5.000000000000000e-04,5.161560900273951e-05,-7.905319754879064e-04,3.180372260094690e+02,5.286756955919144e+01,-7.056229334942336e+01,3.003849125253772e+02,
209,5.600000000003252e-03,5.000000000000000e-04,5.365003142671652e-05,-7.590132242513870e-04,3.268143933175448e+02,5.374660633094241e+01,-7.145395187765575e+01,3.082023446463343e+02,
210,5.466666666670101e-03,5.000000000000000e-04,5.553482752544303e-05,-7.279322067653476e-04,3.357266867051688e+02,5.461045341299950e+01,-7.229291395179848e+01,3.161192785183243e+02,
211,5.333333333336949e-03,5.000000000000000e-04,5.726819652936981e-05,-6.973010765699162e-04,3.447744490998640e+02,5.545849655887407e+01,-7.307556965109518e+01,3.241355826101611e+02,
212,5.200000000003794e-03,5.000000000000000e-04,5.884842509300256e-05,-6.671321754642868e-04,3.539579577521337e+02,5.629017530381268e+01,-7.379819732680483e+01,3.322511165104567e+02,
213,5.066666666670641e-03,5.000000000000000e-04,6.027389290719485e-05,-6.374380342221082e-04,3.632774182415955e+02,5.710498842187083e+01,-7.445696213123827e+01,3.404657304648514e+02,
214,4.933333333337491e-03,5.000000000000000e-04,6.154307847249370e-05,-6.082313732529784e-04,3.727329581984015e+02,5.790249964156083e+01,-7.504791467008897e+01,3.487792648946127e+02,
215,4.800000000004339e-03,5.000000000000000e-04,6.265456503579329e-05,-5.795251032048880e-04,3.823246207411411e+02,5.868234362730558e+01,-7.556698978877861e+01,3.571915498977800e+02,
216,4.666666666671183e-03,5.000000000000000e-04,6.360704669250391e-05,-5.513323255021679e-04,3.920523576197780e+02,5.944423223274514e+01,-7.601000551386548e+01,3.657024047314258e+02,
217,4.533333333338031e-03,5.000000000000000e-04,6.439933465632669e-05,-5.236663328132820e-04,4.019160220637920e+02,6.018796103059152e+01,-7.637266216076080e+01,3.743116372751422e+02,
218,4.400000000004881e-03,5.000000000000000e-04,6.503036369868802e-05,-4.965406094425362e-04,4.119153613212341e+02,6.091341612035333e+01,-7.665054162844470e+01,3.830190434724334e+02,
219,4.266666666671729e-03,5.000000000000000e-04,6.549919875976832e-05,-4.699688316395322e-04,4.220500088902066e+02,6.162058122047581e+01,-7.683910689872120e+01,3.918244067516751e+02,
220,4.133333333338573e-03,5.000000000000000e-04,6.580504173296459e-05,-4.439648678198962e-04,4.323194764403867e+02,6.230954505026924e+01,-7.693370175919179e+01,4.007274974253806e+02,
221,4.000000000005421e-03,5.000000000000000e-04,6.594723842450141e-05,-4.185427786905270e-04,4.427231454165678e+02,6.298050900036657e+01,-7.692955077477390e+01,4.097280720697098e+02,
222,3.866666666671908e-03,5.000000000000000e-04,6.592528568978071e-05,-3.937168172722242e-04,4.532602583325637e+02,6.363379509838155e+01,-7.682175952786835e+01,4.188258728877766e+02,
223,3.733333333338395e-03,5.000000000000000e-04,6.573883874784352e-05,-3.695014288126222e-04,4.639299097798093e+02,6.426985428311383e+01,-7.660531515954216e+01,4.280206270758372e+02,
224,3.600000000004879e-03,5.000000000000000e-04,6.538771867505717e-05,-3.459112505809927e-04,4.747310371743410e+02,6.488927498974564e+01,-7.627508724323476e+01,4.373120462169168e+02,
225,3.466666666671366e-03,5.000000000000000e-04,6.487192007873923e-05,-3.229611115374967e-04,4.856624113216835e+02,6.549279207349113e+01,-7.582582903029275e+01,4.466998257574047e+02,
226,3.333333333337851e-03,5.000000000000000e-04,6.419161895078836e-05,-3.006660318682178e-04,4.967226269194778e+02,6.608129610317121e+01,-7.525217911468098e+01,4.561836446577977e+02,
227,3.200000000004337e-03,5.000000000000000e-04,6.334718070046382e-05,-2.790412223777661e-04,5.079100931661183e+02,6.665584306126192e+01,-7.454866356480038e+01,4.657631653456403e+02,
228,3.066666666670824e-03,5.000000000000000e-04,6.233916836415782e-05,-2.581020837317972e-04,5.192230247221235e+02,6.721766450662199e+01,-7.370969856251001e+01,4.754380341456178e+02,
229,2.933333333337309e-03,5.000000000000000e-04,6.116835098836897e-05,-2.378642055435416e-04,5.306594332460592e+02,6.776817822445321e+01,-7.272959355632052e+01,4.852078823462659e+02,
230,2.800000000003794e-03,5.000000000000000e-04,5.983571218054449e-05,-2.183433653020578e-04,5.422171195874047e+02,6.830899932936521e+01,-7.160255484827319e+01,4.950723279377553e+02,
231,2.666666666670281e-03,5.000000000000000e-04,5.834245882200168e-05,-1.995555271463183e-04,5.538936662163693e+02,6.884195162511327e+01,-7.032268937198582e+01,5.050309776537995e+02,
232,2.533333333336767e-03,5.000000000000000e-04,5.669002994001229e-05,-1.815168404991900e-04,5.656864283850357e+02,6.936907873915948e+01,-6.888400813983962e+01,5.150834280668957e+02,
233,2.400000000003254e-03,5.000000000000000e-04,5.488010574619068e-05,-1.642436385885213e-04,5.775925205443386e+02,6.989265414696288e+01,-6.728042845882980e+01,5.252292628503558e+02,
234,2.266666666669739e-03,5.000000000000000e-04,5.291461687101729e-05,-1.477524368961767e-04,5.896087917118156e+02,7.041518890430604e+01,-6.550577363353651e+01,5.354680407956711e+02,
235,2.133333333336224e-03,5.000000000000000e-04,5.079575386528340e-05,-1.320599315831260e-04,6.017317805060406e+02,7.093943625816557e+01,-6.355376874237996e+01,5.457992660288161e+02,
236,2.000000000002711e-03,5.000000000000000e-04,4.852597709893503e-05,-1.171829979299713e-04,6.139576392877235e+02,7.146839409673534e+01,-6.141803155006414e+01,5.562223292405895e+02,
237,1.866666666669197e-03,5.000000000000000e-04,4.610802725539325e-05,-1.031386888065080e-04,6.262820192162415e+02,7.200530964106467e+01,-5.909205820611963e+01,5.667364079972510e+02,
238,1.733333333335682e-03,5.000000000000000e-04,4.354493667197613e-05,-8.994423319092008e-05,6.386999023300129e+02,7.255368629474449e+01,-5.656920048698570e+01,5.773403118664069e+02,
239,1.600000000002169e-03,5.000000000000000e-04,4.084004185963583e-05,-7.761703498548232e-05,6.512053021125705e+02,7.311725382794749e+01,-5.384260759203188e+01,5.880322245751187e+02,
240,1.466666666668654e-03,5.000000000000000e-04,3.799699800863398e-05,-6.617467333839370e-05,6.637903670793926e+02,7.369963649451472e+01,-5.090502320999980e+01,5.988091147220769e+02,
241,1.333333333335140e-03,5.000000000000000e-04,3.501979902402251e-05,-5.563490807754276e-05,6.764422334560418e+02,7.430289825497215e+01,-4.774805089636448e+01,6.096648952121102e+02,
242,1.200000000001627e-03,5.000000000000000e-04,3.191281648506403e-05,-4.601569852364667e-05,6.891315923101032e+02,7.492179322947541e+01,-4.435999186786700e+01,6.205843317396389e+02,
243,1.066666666668112e-03,5.000000000000000e-04,2.868090556555375e-05,-3.733524337238101e-05,7.017797968984153e+02,7.552863275141490e+01,-4.071976043984214e+01,6.315242799422566e+02,
244,9.333333333345975e-04,5.000000000000000e-04,2.532970316603613e-05,-2.961203123823039e-05,7.141593121829826e+02,7.602362940163385e+01,-3.678523831449887e+01,6.423626426484001e+02,
245,8.000000000010846e-04,5.000000000000000e-04,2.186648579290272e-05,-2.286470462089896e-05,7.257055509957638e+02,7.616745715198294e+01,-3.246429893684191e+01,6.527751972739580e+02,
246,6.666666666675699e-04,5.000000000000000e-04,1.830209278421392e-05,-1.711126158513650e-05,7.348757750434986e+02,7.519850242594052e+01,-2.762550161563994e+01,6.619869918406274e+02,
247,5.333333333340570e-04,5.000000000000000e-04,1.465609735919035e-05,-1.236428733645060e-05,7.393235277789263e+02,7.239997574596745e+01,-2.196366013015652e+01,6.683686360995038e+02,
248,4.000000000005423e-04,5.000000000000000e-04,1.096107055162260e-05,-8.621243299406717e-06,7.301328822447566e+02,6.164810753701052e+01,-1.654773381329466e+01,6.693035215755917e+02,
249,2.666666666670293e-04,5.000000000000000e-04,7.291100767740165e-06,-5.791316806010665e-06,7.332446908730712e+02,6.910272965051661e+01,-1.007761033146319e+01,6.644477237349170e+02,
250,1.333333333335129e-04,5.000000000000000e-04,3.585473478277239e-06,-3.723567837744547e-06,6.785189173467587e+02,8.633437073880819e-01,-7.232645217660263e+01,6.929224626336788e+02,
251,0.000000000000000e+00,4.000000000004066e-04,0.000000000000000e+00,0.000000000000000e+00,7.642798780053160e+02,5.089681766908697e+02,-1.069932352628424e+02,3.331280150274317e+02,
252,0.000000000000000e+00,3.000000000008132e-04,0.000000000000000e+00,0.000000000000000e+00,5.492453786228702e+02,3.652429312281793e+02,-4.364770612006396e+01,2.036599853810509e+02,
253,0.000000000000000e+00,2.000000000010842e-04,0.000000000000000e+00,0.000000000000000e+00,3.575905635947175e+02,2.379130526703653e+02,-4.350977379361137e+00,1.199934608121264e+02,
254,0.000000000000000e+00,1.000000000012198e-04,0.000000000000000e+00,0.000000000000000e+00,1.802687546794448e+02,1.201363641891937e+02,1.789986185819803e+01,6.998231636808204e+01,
255,0.000000000000000e+00,1.355361135824129e-15,0.000000000000000e+00,0.000000000000000e+00,7.148440419467107e+00,4.907682495404799e+00,2.608751059802206e+01,5.222311588637643e+01,
256,0.000000000000000e+00,-9.999999999878032e-05,0.000000000000000e+00,0.000000000000000e+00,-1.677092008910236e+02,-1.118172151500606e+02,2.103477647538986e+01,6.995542406094383e+01,
257,0.000000000000000e+00,-1.999999999989157e-04,0.000000000000000e+00,0.000000000000000e+00,-3.504872253273646e+02,-2.341207636634474e+02,1.706111121052483e+00,1.164164793352274e+02,
258,0.000000000000000e+00,-2.999999999991868e-04,0.000000000000000e+00,0.000000000000000e+00,-5.525816041576450e+02,-3.693921398164434e+02,-3.514925997942834e+01,1.962148357133635e+02,
259,0.000000000000000e+00,-3.999999999995934e-04,0.000000000000000e+00,0.000000000000000e+00,-7.835057110457308e+02,-5.231577385159255e+02,-9.705701997004421e+01,3.247480982272914e+02,
260,1.333333333330840e-04,-3.999999999996000e-04,-2.281497504137803e-06,-1.725554745136888e-06,-4.861828430414708e+02,4.233540726556187e+01,-2.966888711670453e+01,5.318388029831806e+02,
261,1.333333333331317e-04,-2.999999999992003e-04,-1.616393792242136e-06,-6.248883732274083e-07,-3.869081433959986e+02,-3.786540388759409e+01,-2.005787633814286e+01,3.513404440372854e+02,
262,1.333333333331793e-04,-1.999999999989337e-04,-1.030078763164816e-06,3.033117053524108e-08,-2.648316117405370e+02,-5.124077316359011e+01,2.508658823991663e-01,2.135914278681783e+02,
263,1.333333333332270e-04,-9.999999999880062e-05,-4.952059192017961e-07,3.739537019447890e-07,-1.324264263468900e+02,-3.363482753103396e+01,1.158760367567201e+01,1.014734952210224e+02,
264,1.333333333332747e-04,1.332809730636431e-15,2.086252223424387e-08,4.637801353876106e-07,2.147957054203717e+00,-5.042705463100679e+00,1.432898011283895e+01,2.954630792052204e+01,
265,1.333333333333223e-04,1.000000000011995e-04,5.361417332236270e-07,3.182216881745447e-07,1.359468965637456e+02,2.348487342641246e+01,8.189456422499291e+00,1.136484730831264e+02,
266,1.333333333333700e-04,2.000000000010662e-04,1.068386969836607e-06,-7.735153082119401e-08,2.661190844433924e+02,4.116565105918384e+01,-6.643510231236473e+00,2.253454949718625e+02,
267,1.333333333334176e-04,3.000000000007996e-04,1.648521747488156e-06,-7.759755205888374e-07,3.853145870867235e+02,2.948861239185558e+01,-3.065773558747861e+01,3.610702303887151e+02,
268,1.333333333334653e-04,4.000000000003998e-04,2.304094512643219e-06,-1.902206984581723e-06,4.836501141845322e+02,-4.473888692567313e+01,-4.600407879547147e+01,5.363398526657519e+02,
269,2.666666666661684e-04,-3.999999999996069e-04,-5.454373821093072e-06,-3.798308188683398e-06,-6.021148427249053e+02,-1.835765003420173e+01,1.516671851443800e+00,5.837650736316376e+02,
270,2.666666666662640e-04,-2.999999999992138e-04,-3.836691148952093e-06,-2.427300871921032e-06,-4.296357189257682e+02,2.590968059407601e+00,-1.059761475294119e+01,4.327460533569176e+02,
271,2.666666666663597e-04,-1.999999999989518e-04,-2.452096704724843e-06,-1.507420864565858e-06,-2.847471137330450e+02,-8.293366931800847e+00,-1.648541162176149e+01,2.784129115285461e+02,
272,2.666666666664554e-04,-9.999999999882095e-05,-1.172249716752849e-06,-9.976514067306704e-07,-1.405155728782663e+02,-1.049343902839497e+01,-1.790453641939850e+01,1.348630601330406e+02,
273,2.666666666665511e-04,1.310204115340108e-15,5.760848447264158e-08,-8.651737114410536e-07,3.149933467380611e+00,-7.234262012757533e+00,-1.965400165754230e+01,4.065649567275102e+01,
274,2.666666666666467e-04,1.000000000011791e-04,1.284483625201161e-06,-1.095906901342177e-06,1.461759327258398e+02,-3.420395975289019e+00,-2.256629057349861e+01,1.562562364894485e+02,
275,2.666666666667424e-04,2.000000000010481e-04,2.554727462572386e-06,-1.696049280910684e-06,2.885989147736375e+02,-3.751790888880635e+00,-2.600261465365949e+01,2.969401942760177e+02,
276,2.666666666668380e-04,3.000000000007860e-04,3.921788468382828e-06,-2.689140260583600e-06,4.311934147096050e+02,-1.072916810864424e+01,-2.551372705758396e+01,4.448588206141673e+02,
277,2.666666666669336e-04,4.000000000003931e-04,5.509446679813007e-06,-4.104882600526039e-06,5.979868135706511e+02,1.346840449390765e+01,-1.932773274901388e+01,5.857951993337574e+02,
278,3.999999999992524e-04,-3.999999999996137e-04,-8.550796149614169e-06,-6.451314843490364e-06,-5.773915177360253e+02,-3.445668164701299e+00,1.031118028752218e+01,5.743162195131147e+02,
279,3.999999999993958e-04,-2.999999999992274e-04,-6.214683968238410e-06,-5.126079931481539e-06,-4.417796023921188e+02,-4.360375558602385e+00,-2.770117449216006e+00,4.374543109930008e+02,
280,3.999999999995392e-04,-1.999999999989699e-04,-4.017223075713829e-06,-4.178719554764822e-06,-2.918277344800464e+02,-2.112425488519360e+00,-1.481094216099001e+01,2.912257136566769e+02,
281,3.999999999996823e-04,-9.999999999884125e-05,-1.935882713280760e-06,-3.640155541176807e-06,-1.440998317068137e+02,-5.187762112335079e+00,-2.315772926110037e+01,1.464297947042984e+02,
282,3.999999999998258e-04,1.287598500043785e-15,8.728849030986380e-08,-3.508121092917658e-06,3.327299640924196e+00,-7.706889169792628e+00,-2.787894289632658e+01,5.683920434679836e+01,
283,3.999999999999691e-04,1.000000000011587e-04,2.104324852149667e-06,-3.777314163859563e-06,1.501659467340740e+02,-9.540568826537125e+00,-2.965293259689275e+01,1.703624276620147e+02,
284,4.000000000001123e-04,2.000000000010300e-04,4.166560487808636e-06,-4.443122647819085e-06,2.961708592024241e+02,-1.053794717274540e+01,-2.801175045119426e+01,3.117834578059605e+02,
285,4.000000000002556e-04,3.000000000007724e-04,6.329242573945903e-06,-5.497518635606451e-06,4.427176396155780e+02,-5.308290210021642e+00,-2.298736372410588e+01,4.503786288891054e+02,
286,4.000000000003990e-04,4.000000000003863e-04,8.610653636847536e-06,-6.899552496995958e-06,5.731550207358382e+02,-2.523409955141901e+00,-1.691776997001696e+01,5.766719165399536e+02,
287,5.333333333323365e-04,-3.999999999996204e-04,-1.160613510870818e-05,-1.002520862136035e-05,-5.651428542630290e+02,-1.551760200343022e+00,1.230672477374116e+01,5.641283038506416e+02,
288,5.333333333325278e-04,-2.999999999992410e-04,-8.552780731335130e-06,-8.750558298501677e-06,-4.296549208365387e+02,-4.118719390952858e+00,5.336404127011978e-01,4.255375398588220e+02,
289,5.333333333327188e-04,-1.999999999989879e-04,-5.595856307283268e-06,-7.854321911064490e-06,-2.881791717794724e+02,-4.927218259027189e+00,-1.148554886598703e+01,2.841818792677681e+02,
290,5.333333333329101e-04,-9.999999999886161e-05,-2.724133119326763e-06,-7.347472694170323e-06,-1.427082119272878e+02,-5.826206974780625e+00,-2.107066886691358e+01,1.432221198901017e+02,
291,5.333333333331013e-04,1.264965779693150e-15,9.499208118648061e-08,-7.238817387130655e-06,3.084250003592764e+00,-7.703059221291870e+00,-2.714476576298642e+01,5.535087419023190e+01,
292,5.333333333332924e-04,1.000000000011385e-04,2.904620512294394e-06,-7.526826072075971e-06,1.482887523255516e+02,-8.963824423589102e+00,-2.945802855148913e+01,1.679269921090882e+02,
293,5.333333333334834e-04,2.000000000010118e-04,5.746971208918174e-06,-8.202759336215869e-06,2.918804155228046e+02,-8.111838985337194e+00,-2.839246812476669e+01,3.053193111313814e+02,
294,5.333333333336747e-04,3.000000000007590e-04,8.652272179759731e-06,-9.247616445541881e-06,4.300890068878098e+02,-6.121946481731001e+00,-2.507317487481578e+01,4.390838783567168e+02,
295,5.333333333338659e-04,4.000000000003794e-04,1.162856445170540e-05,-1.064036739901029e-05,5.612395574344754e+02,-4.300463333947654e+00,-2.212309487043456e+01,5.672682261482070e+02,
296,6.666666666654207e-04,-3.999999999996272e-04,-1.464072253290952e-05,-1.457007494352227e-05,-5.558318017861420e+02,-2.062692703635008e+00,1.450100569732617e+01,5.545280361162717e+02,
297,6.666666666656597e-04,-2.999999999992545e-04,-1.085771247689491e-05,-1.335122605419842e-05,-4.190659050146853e+02,-4.586479601796551e+00,2.401256526772136e+00,4.145072474905932e+02,
298,6.666666666658984e-04,-1.999999999990060e-04,-7.155452111564890e-06,-1.250969431918829e-05,-2.802214762312655e+02,-5.868347709754154e+00,-8.907114080142401e+00,2.749308746839605e+02,
299,6.666666666661371e-04,-9.999999999888191e-05,-3.520749878525576e-06,-1.204908547708123e-05,-1.392750175312868e+02,-6.795861163799835e+00,-1.833981194263143e+01,1.374631648122704e+02,
300,6.666666666663759e-04,1.242468584614076e-15,7.068817596869890e-08,-1.197212232131642e-05,2.657171339974589e+00,-7.499369153630120e+00,-2.497071289093675e+01,5.096372556951278e+01,
301,6.666666666666146e-04,1.000000000011182e-04,3.649399798436402e-06,-1.227716468461014e-05,1.440017674004285e+02,-7.652251750270775e+00,-2.853561665998103e+01,1.620372401555340e+02,
302,6.666666666668536e-04,2.000000000009938e-04,7.245224995499403e-06,-1.295586385912089e-05,2.831827271715756e+02,-6.924113559569328e+00,-2.940463825130664e+01,2.960076182157593e+02,
303,6.666666666670923e-04,3.000000000007454e-04,1.088049369811554e-05,-1.399563428768034e-05,4.191310329315777e+02,-5.337085604592964e+00,-2.859514901410541e+01,4.283035300370431e+02,
304,6.666666666673310e-04,4.000000000003728e-04,1.456576489720166e-05,-1.538296575301703e-05,5.519878889235365e+02,-3.496196802559577e+00,-2.729442322312057e+01,5.581599337567040e+02,
305,7.999999999985048e-04,-3.999999999996339e-04,-1.766408598642910e-05,-2.008726032504581e-05,-5.467514131713358e+02,-2.780836355382593e+00,1.729429641727997e+01,5.450691324921600e+02,
306,7.999999999987917e-04,-2.999999999992680e-04,-1.314861667789264e-05,-1.892431641029359e-05,-4.102710894105222e+02,-4.882233497502046e+00,4.487193038623364e+00,4.054881799805401e+02,
307,7.999999999990784e-04,-1.999999999990241e-04,-8.710323589898186e-06,-1.813633624851972e-05,-2.734337564098452e+02,-6.184235690555649e+00,-6.836465126464375e+00,2.675990570730611e+02,
308,7.999999999993646e-04,-9.999999999890226e-05,-4.332280537120828e-06,-1.772173050280856e-05,-1.358044898345207e+02,-6.894214307119267e+00,-1.628827981686786e+01,1.329627443087758e+02,
309,7.999999999996517e-04,1.219835864263441e-15,6.463569879937354e-09,-1.767950542033563e-05,2.161513817257148e+00,-7.132021467491125e+00,-2.346629598837031e+01,4.784389185407140e+01,
310,7.999999999999381e-04,1.000000000010978e-04,4.329551730670150e-06,-1.800640000866251e-05,1.395965874251286e+02,-6.834769333865264e+00,-2.823211272939189e+01,1.569405970389437e+02,
311,8.000000000002246e-04,2.000000000009757e-04,8.660040362227692e-06,-1.869621430452422e-05,2.756509846316803e+02,-5.912070982361310e+00,-3.084110676225485e+01,2.882402639327113e+02,
312,8.000000000005112e-04,3.000000000007318e-04,1.301724482961716e-05,-1.974056145780303e-05,4.099211270484242e+02,-4.403286809027634e+00,-3.181902901157894e+01,4.191831608584484e+02,
313,8.000000000007979e-04,4.000000000003659e-04,1.741557153126797e-05,-2.113165849758317e-05,5.428854153963086e+02,-2.404187753086358e+00,-3.171407544823764e+01,5.489661935210316e+02,
314,9.333333333315888e-04,-3.999999999996409e-04,-2.068263014923237e-05,-2.656009530150846e-05,-5.373958340990207e+02,-3.291172611968854e+00,2.042489509185341e+01,5.356645356753153e+02,
315,9.333333333319232e-04,-2.999999999992817e-04,-1.544074910326373e-05,-2.545556005454296e-05,-4.025116311114396e+02,-4.991492697476829e+00,6.813855943905937e+00,3.977536611722805e+02,
316,9.333333333322576e-04,-1.999999999990421e-04,-1.027652723781761e-05,-2.472073221276450e-05,-2.678056475550058e+02,-6.094705536465440e+00,-4.959623113187688e+00,2.618988518835683e+02,
317,9.333333333325917e-04,-9.999999999892262e-05,-5.171101662529921e-06,-2.435235087198369e-05,-1.330345615042046e+02,-6.631087221965888e+00,-1.482724367925911e+01,1.298353839718476e+02,
318,9.333333333329261e-04,1.197230248967118e-15,-1.045919154073420e-07,-2.434738760486205e-05,1.658190458660686e+00,-6.640870685969226e+00,-2.266867696801024e+01,4.609067235138036e+01,
319,9.333333333332605e-04,1.000000000010774e-04,4.943582738548109e-06,-2.470205264670641e-05,1.358853702544226e+02,-6.133018005889141e+00,-2.846895059764273e+01,1.530070168213887e+02,
320,9.333333333335948e-04,2.000000000009577e-04,9.993509926620374e-06,-2.541131015817287e-05,2.692755759423049e+02,-5.102036340634424e+00,-3.237201100720843e+01,2.819128633260466e+02,
321,9.333333333339288e-04,3.000000000007183e-04,1.506362554731236e-05,-2.646943282558309e-05,4.017234013773044e+02,-3.552062430361470e+00,-3.463537702302729e+01,4.111528170043683e+02,
322,9.333333333342631e-04,4.000000000003593e-04,2.017047140238080e-05,-2.787101661241501e-05,5.335086928164779e+02,-1.492688301630434e+00,-3.548550781664608e+01,5.396882089302160e+02,
323,1.066666666664673e-03,-3.999999999996475e-04,-2.370214287224102e-05,-3.397013019740731e-05,-5.278398677915102e+02,-3.637759911143789e+00,2.360490462028702e+01,5.263236798727098e+02,
324,1.066666666665055e-03,-2.999999999992951e-04,-1.774449981059297e-05,-3.292728789578685e-05,-3.952061680119942e+02,-4.997324085947177e+00,9.225612678501115e+00,3.906448381782063e+02,
325,1.066666666665437e-03,-1.999999999990603e-04,-1.186606670211182e-05,-3.224759597975963e-05,-2.628611703986231e+02,-5.862874086376468e+00,-3.194024265933884e+00,2.570776759492018e+02,
326,1.066666666665819e-03,-9.999999999894300e-05,-6.047310843128932e-06,-3.192737593006291e-05,-1.307183600138856e+02,-6.222224339607401e+00,-1.368822282109446e+01,1.274706145502877e+02,
327,1.066666666666202e-03,1.174624633670796e-15,-2.687465132308518e-07,-3.196303470983980e-05,1.170100679360932e+00,-6.085386714085924e+00,-2.226495509693936e+01,4.511712534272734e+01,
328,1.066666666666583e-03,1.000000000010572e-04,5.489035479827385e-06,-3.235069908016610e-05,1.326556688812460e+02,-5.463892644788313e+00,-2.896177698893121e+01,1.497736671834216e+02,
329,1.066666666666966e-03,2.000000000009396e-04,1.124501230925320e-05,-3.308609939776124e-05,2.636013103590902e+02,-4.364644986485736e+00,-3.387310765027090e+01,2.763970023567813e+02,
330,1.066666666667348e-03,3.000000000007048e-04,1.701739582789577e-05,-3.416475408934305e-05,3.939847230501956e+02,-2.791143026162040e+00,-3.712629268168509e+01,4.036638878247450e+02,
331,1.066666666667730e-03,4.000000000003524e-04,2.282364275626047e-05,-3.558239143772802e-05,5.239312971861918e+02,-7.406250750033223e-01,-3.882840978998676e+01,5.303877898637319e+02,
332,1.199999999997758e-03,-3.999999999996543e-04,-2.672838067501369e-05,-4.229961465573834e-05,-5.182216630906438e+02,-3.918324817398073e+00,2.668474493909558e+01,5.170650115883521e+02,
333,1.199999999998188e-03,-2.999999999993087e-04,-2.006744845431161e-05,-4.132213217144674e-05,-3.880847412180888e+02,-4.971781313408879e+00,1.159162936750499e+01,3.838137615204791e+02,
334,1.199999999998618e-03,-1.999999999990783e-04,-1.348737807595710e-05,-4.070072007736885e-05,-2.582176606150078e+02,-5.597416352639765e+00,-1.519022183383584e+00,2.526385115629700e+02,
335,1.199999999999047e-03,-9.999999999896325e-05,-6.968565589497593e-06,-4.043182779942947e-05,-1.286109267595128e+02,-5.778036827938930e+00,-1.270834580266797e+01,1.254349515131365e+02,
336,1.199999999999478e-03,1.152100333537409e-15,-4.917360359638501e-07,-4.051188183895724e-05,7.073336019044891e-01,-5.511737507438731e+00,-2.202628456630145e+01,4.448938853980604e+01,
337,1.199999999999907e-03,1.000000000010368e-04,5.962076604150645e-06,-4.093721271979545e-05,1.296805093262326e+02,-4.803222970023029e+00,-2.952946439910201e+01,1.468803299394520e+02,
338,1.200000000000337e-03,2.000000000009215e-04,1.241145890761912e-05,-4.170403002620646e-05,2.582607109367556e+02,-3.657846595313341e+00,-3.528886481136837e+01,2.712610305561413e+02,
339,1.200000000000767e-03,3.000000000006912e-04,1.887456100394461e-05,-4.280850802678813e-05,3.864439638962720e+02,-2.078422757426672e+00,-3.938188702300627e+01,3.964257522324419e+02,
340,1.200000000001198e-03,4.000000000003457e-04,2.536915478299363e-05,-4.424691543301246e-05,5.142760019538196e+02,-6.352717338186409e-02,-4.187292774255195e+01,5.211127704573388e+02,
341,1.333333333330841e-03,-3.999999999996612e-04,-2.976696630577820e-05,-5.153176998939574e-05,-5.086190433696486e+02,-4.188395619000417e+00,2.960218949693401e+01,5.078931352973655e+02,
342,1.333333333331319e-03,-2.999999999993222e-04,-2.241575168233970e-05,-5.062331395879595e-05,-3.810436384777297e+02,-4.953447349432182e+00,1.384961465125533e+01,3.771088425996829e+02,
343,1.333333333331797e-03,-1.999999999990964e-04,-1.514690781699360e-05,-5.006374348779499e-05,-2.536892785777260e+02,-5.342508224098314e+00,6.614330632101240e-02,2.483468055861105e+02,
344,1.333333333332274e-03,-9.999999999898361e-05,-7.940976465952109e-06,-4.984978444836672e-05,-1.265758363002359e+02,-5.341837141949650e+00,-1.181110822449790e+01,1.235139330677902e+02,
345,1.333333333332752e-03,1.129467613186774e-15,-7.788581019367961e-07,-4.997810705402129e-05,2.727772428303261e-01,-4.945488331224968e+00,-2.184166651613314e+01,4.399390731009530e+01,
346,1.333333333333229e-03,1.000000000010165e-04,6.358204679523012e-06,-5.044532841961745e-05,1.268290547519477e+02,-4.152924746689454e+00,-3.008491888282636e+01,1.441412096873284e+02,
347,1.333333333333707e-03,2.000000000009035e-04,1.348863189217625e-05,-5.124802659206459e-05,2.530721602654634e+02,-2.965733981881833e+00,-3.660164819452423e+01,2.662970632448612e+02,
348,1.333333333334185e-03,3.000000000006775e-04,2.063052211098497e-05,-5.238277464179366e-05,3.789973162124905e+02,-1.385223886538970e+00,-4.145080772999430e+01,3.893116420787665e+02,
349,1.333333333334662e-03,4.000000000003389e-04,2.780170128207721e-05,-5.384618219660464e-05,5.046144402802207e+02,5.885717057556370e-01,-4.468395289382951e+01,5.118873887654548e+02,
350,1.466666666663926e-03,-3.999999999996680e-04,-3.282328869378168e-05,-6.165043098847475e-05,-4.990667942584730e+02,-4.471507688867504e+00,3.233903928061195e+01,4.988063264867858e+02,
351,1.466666666664452e-03,-2.999999999993358e-04,-2.479483555340679e-05,-6.081451987439191e-05,-3.740496360325658e+02,-4.956042865629517e+00,1.597720808294457e+01,3.704742436788052e+02,
352,1.466666666664977e-03,-1.999999999991145e-04,-1.685009403127908e-05,-6.032035188213209e-05,-2.492039030220191e+02,-5.111871468585775e+00,1.561744580980143e+00,2.441120153790615e+02,
353,1.466666666665502e-03,-9.999999999900393e-05,-8.969805804285326e-06,-6.016495772868544e-05,-1.245576460352636e+02,-4.928117107462850e+00,-1.096675175705495e+01,1.216236110625359e+02,
354,1.466666666666027e-03,1.106861997890451e-15,-1.135043274332921e-06,-6.034530385211751e-05,-1.349654814956427e-01,-4.397698414497789e+00,-2.166680019151502e+01,4.354275845894747e+01,
355,1.466666666666553e-03,1.000000000009962e-04,6.672799652086697e-06,-6.085831067420410e-05,1.240433257073646e+02,-3.516997248918393e+00,-3.059559880136533e+01,1.414779087234740e+02,
356,1.466666666667078e-03,2.000000000008854e-04,1.447202413584596e-05,-6.170086967732860e-05,2.479614918223192e+02,-2.284569511203554e+00,-3.780850270740376e+01,2.614211596654798e+02,
357,1.466666666667604e-03,3.000000000006640e-04,2.228065115278214e-05,-6.286986141561708e-05,3.716101206832147e+02,-6.998615475026071e-01,-4.335778746846587e+01,3.822751807340881e+02,
358,1.466666666668129e-03,4.000000000003321e-04,3.011645492145163e-05,-6.436216805278563e-05,4.949840940770521e+02,1.237482298469658e+00,-4.729119804588478e+01,5.027241254339110e+02,
359,1.599999999997010e-03,-3.999999999996747e-04,-3.590244735320682e-05,-7.263977257566430e-05,-4.895776479379752e+02,-4.773783808549776e+00,3.489461845520254e+01,4.898013110061661e+02,
360,1.599999999997583e-03,-2.999999999993493e-04,-2.720968762275824e-05,-7.187971484727852e-05,-3.670959092433966e+02,-4.982120585381576e+00,1.797081080531657e+01,3.638931108172612e+02,
361,1.599999999998157e-03,-1.999999999991325e-04,-1.860183143855608e-05,-7.145434358900501e-05,-2.447401994555674e+02,-4.907257426877392e+00,2.969693734601316e+00,2.399064742887242e+02,
362,1.599999999998729e-03,-9.999999999902418e-05,-1.005982153985274e-05,-7.136098557864162e-05,-1.225397058587399e+02,-4.539609416298710e+00,-1.016456461287633e+01,1.197384493615262e+02,
363,1.599999999999303e-03,1.084310592702753e-15,-1.564901990815235e-06,-7.159690327496189e-05,-5.191499479986916e-01,-3.871540482292456e+00,-2.148734773425372e+01,4.310525458578543e+01,
364,1.599999999999876e-03,1.000000000009758e-04,6.901387833761145e-06,-7.215930982424415e-05,1.213008165259580e+02,-2.897628067360376e+00,-3.105266717233173e+01,1.388608159037747e+02,
365,1.600000000000449e-03,2.000000000008672e-04,1.535722734159626e-05,-7.304538289671755e-05,2.429034019079367e+02,-1.614262072405992e+00,-3.891245081354978e+01,2.566039814805520e+02,
366,1.600000000001022e-03,3.000000000006505e-04,2.382053428758992e-05,-7.425227539579844e-05,3.642750804823953e+02,-1.906067149141677e-02,-4.511594483149607e+01,3.753025648609430e+02,
367,1.600000000001596e-03,4.000000000003252e-04,3.230898657713687e-05,-7.577712127832707e-05,4.854041017879235e+02,1.889543830092681e+00,-4.970943454878810e+01,4.936298606140005e+02,
368,1.733333333330094e-03,-3.999999999996815e-04,-3.900923734217824e-05,-8.448415932748622e-05,-4.801561285506925e+02,-5.094276490480954e+00,3.727399175421689e+01,4.808754153916085e+02,
369,1.733333333330715e-03,-2.999999999993630e-04,-2.966496365527913e-05,-8.380303666507467e-05,-3.601835532251035e+02,-5.029815721922677e+00,1.983361140217610e+01,3.573620934395371e+02,
370,1.733333333331336e-03,-1.999999999991505e-04,-2.040665478862027e-05,-8.344963450144298e-05,-2.402952867651487e+02,-4.726561376582564e+00,4.293097268051797e+00,2.357251516444639e+02,
371,1.733333333331957e-03,-9.999999999904459e-05,-1.121544495904714e-05,-8.342156171109947e-05,-1.205200829653145e+02,-4.174979373127993e+00,-9.400616505434211e+00,1.178544419723142e+02,
372,1.733333333332578e-03,1.061704977406430e-15,-2.072748988079937e-06,-8.371636289109854e-05,-8.831900518787332e-01,-3.366819990328821e+00,-2.129993445952287e+01,4.267220699226892e+01,
373,1.733333333333198e-03,1.000000000009554e-04,7.039743404677226e-06,-8.433152859947958e-05,1.185935583736491e+02,-2.295386712155327e+00,-3.145599051633460e+01,1.362793249227981e+02,
374,1.733333333333819e-03,2.000000000008492e-04,1.614007839714999e-05,-8.526450509305904e-05,2.378913374197220e+02,-9.554630893960869e-01,-3.991814329835594e+01,2.518365080185849e+02,
375,1.733333333334441e-03,3.000000000006369e-04,2.524605208678573e-05,-8.651270186295465e-05,3.569936511106414e+02,6.569321534773032e-01,-4.673367138894636e+01,3.683910984851792e+02,
376,1.733333333335061e-03,4.000000000003186e-04,3.437522529824308e-05,-8.807349596098750e-05,4.758854452861544e+02,2.544795976761637e+00,-5.194773295176084e+01,4.846087474694895e+02,
377,1.866666666663178e-03,-3.999999999996883e-04,-4.214815242841627e-05,-9.716808153671609e-05,-4.708045023848265e+02,-5.429695961667065e+00,3.948345971482247e+01,4.720269958568061e+02,
378,1.866666666663847e-03,-2.999999999993764e-04,-3.216502368190597e-05,-9.656874798722220e-05,-3.533154410199776e+02,-5.096059053360959e+00,2.157055770912539e+01,3.508815951524721e+02,
379,1.866666666664516e-03,-1.999999999991686e-04,-2.226880120178460e-05,-9.629025555164945e-05,-2.358714525051533e+02,-4.566861319569284e+00,5.535350493361184e+00,2.315693725946236e+02,
380,1.866666666665184e-03,-9.999999999906492e-05,-1.244080322733318e-05,-9.633048261197655e-05,-1.185010058861912e+02,-3.831956599783322e+00,-8.673027167385872e+00,1.159736024500123e+02,
381,1.866666666665853e-03,1.039072257055795e-15,-2.662614647927770e-06,-9.668724166850990e-05,-1.229859441716698e+00,-2.882301690112371e+00,-2.110452024963036e+01,4.224137385612020e+01,
382,1.866666666666522e-03,1.000000000009352e-04,7.083919341599188e-06,-9.735828634469422e-05,1.159189580020064e+02,-1.710116700892996e+00,-3.180785794737374e+01,1.337294228068809e+02,
383,1.866666666667191e-03,2.000000000008312e-04,1.681670210227592e-05,-9.834131839754065e-05,2.329248805503407e+02,-3.088883262968487e-01,-4.083028209672166e+01,2.471162452951895e+02,
384,1.866666666667859e-03,3.000000000006233e-04,2.655339608085531e-05,-9.963399354759612e-05,3.497693590450892e+02,1.326736261019228e+00,-4.821739104804888e+01,3.615410468682132e+02,
385,1.866666666668528e-03,4.000000000003118e-04,3.631143368865012e-05,-1.012339255820957e-04,4.664353600119524e+02,3.201097789898817e+00,-5.401314130220727e+01,4.756633887842737e+02,
386,1.999999999996262e-03,-3.999999999996950e-04,-4.532339510331868e-05,-1.106761342169164e-04,-4.615248980722962e+02,-5.776329269053761e+00,4.152920374875197e+01,4.632552827785402e+02,
387,1.999999999996979e-03,-2.999999999993900e-04,-3.471394528230978e-05,-1.101612210874978e-04,-3.464944992815928e+02,-5.177709657478951e+00,2.318659791937839e+01,3.444526443092161e+02,
388,1.999999999997696e-03,-1.999999999991868e-04,-2.419222931163794e-05,-1.099603519859797e-04,-2.314717099358986e+02,-4.425413398109587e+00,6.699677883924348e+00,2.274413408035553e+02,
389,1.999999999998412e-03,-9.999999999908525e-05,-1.373974602445147e-05,-1.100716641582892e-04,-1.164851365627953e+02,-3.508394220180781e+00,-7.980495441817311e+00,1.140986307557500e+02,
390,1.999999999999129e-03,1.016547956922409e-15,-3.338250599852533e-06,-1.104932258146077e-04,-1.561112369909587e+00,-2.416700646219413e+00,-2.090178567693903e+01,4.181232604432972e+01,
391,1.999999999999846e-03,1.000000000009148e-04,7.030252374809613e-06,-1.112230415165843e-04,1.132763229224871e+02,-1.141537367692415e+00,-3.211087519614372e+01,1.312092983627011e+02,
392,2.000000000000562e-03,2.000000000008131e-04,1.738351682298509e-05,-1.122590576658153e-04,2.280052709847727e+02,3.247344558675174e-01,-4.165314709258335e+01,2.424424990898989e+02,
393,2.000000000001279e-03,3.000000000006098e-04,2.773906380117067e-05,-1.135991674435765e-04,3.426057154892212e+02,1.988654643045628e+00,-4.957261723236723e+01,3.547530967540023e+02,
394,2.000000000001995e-03,4.000000000003050e-04,3.811419022818986e-05,-1.152412148609700e-04,4.570592380927744e+02,3.855756201610948e+00,-5.591194436989888e+01,4.667954349510766e+02,
395,2.133333333329346e-03,-3.999999999997018e-04,-4.853888793223569e-05,-1.249930143753589e-04,-4.523197666524841e+02,-6.130657008683531e+00,4.341703720383288e+01,4.545600928842780e+02,
396,2.133333333330110e-03,-2.999999999994035e-04,-3.731553143390750e-05,-1.245649367827371e-04,-3.397234169173946e+02,-5.271894449262494e+00,2.468627126137240e+01,3.380761287586151e+02,
397,2.133333333330874e-03,-1.999999999992048e-04,-2.618062636574504e-05,-1.244441859006252e-04,-2.270986868070628e+02,-4.299857404797708e+00,7.788993851910499e+00,2.233427681477957e+02,
398,2.133333333331639e-03,-9.999999999910558e-05,-1.511585169697345e-05,-1.246291483481724e-04,-1.144746259797380e+02,-3.202521111811235e+00,-7.321911194170584e+00,1.122315590904812e+02,
399,2.133333333332404e-03,9.939694466803983e-16,-4.103134047229160e-06,-1.251181376386831e-04,-1.878206750993032e+00,-1.968989665476673e+00,-2.069243595056889e+01,4.138497147288064e+01,
400,2.133333333333167e-03,1.000000000008945e-04,6.875359512498037e-06,-1.259093989067518e-04,1.106656625158655e+02,-5.894961442210018e-01,-3.236743205603757e+01,1.287179589649007e+02,
401,2.133333333333932e-03,2.000000000007950e-04,1.783722887667937e-05,-1.270011136822352e-04,2.231340390995320e+02,9.446158472983601e-01,-4.239057613433936e+01,2.378150196795087e+02,
402,2.133333333334696e-03,3.000000000005963e-04,2.879984849467608e-05,-1.283914043920568e-04,3.355057902963680e+02,2.640935870178447e+00,-5.080435151989559e+01,3.480277860251919e+02,
403,2.133333333335460e-03,4.000000000002982e-04,3.978037489639025e-05,-1.300783384030185e-04,4.477614219001882e+02,4.506049411460900e+00,-5.765006504535628e+01,4.580059445455437e+02,
404,2.266666666662431e-03,-3.999999999997085e-04,-5.179828438954882e-05,-1.401035246085329e-04,-4.431918130960245e+02,-6.489493549013744e+00,4.515246425377570e+01,4.459415836300686e+02,
405,2.266666666663242e-03,-2.999999999994172e-04,-3.997331787188808e-05,-1.397644884480501e-04,-3.330046696803746e+02,-5.376051193516371e+00,2.607373298704405e+01,3.317527239663993e+02,
406,2.266666666664054e-03,-1.999999999992229e-04,-2.823741363788128e-05,-1.397261404174366e-04,-2.227545452603696e+02,-4.188185935935724e+00,8.805930015705552e+00,2.192747843280288e+02,
407,2.266666666664867e-03,-9.999999999912591e-05,-1.657243197876582e-05,-1.399871075710489e-04,-1.124710795740653e+02,-2.912916075486669e+00,-6.696269850102731e+00,1.103736893865692e+02,
408,2.266666666665679e-03,9.713367263297634e-16,-4.960472736928252e-06,-1.405459394127875e-04,-2.181911863501780e+00,-1.538421894454036e+00,-2.047709008359703e+01,4.095923525295920e+01,
409,2.266666666666491e-03,1.000000000008742e-04,6.616131849630799e-06,-1.414011124304738e-04,1.080872738622750e+02,-5.401418886250653e-02,-3.257966978677436e+01,1.262548126410242e+02,
410,2.266666666667303e-03,2.000000000007770e-04,1.817482419797216e-05,-1.425510345932175e-04,2.183126687586537e+02,1.549898835875885e+00,-4.304606719391012e+01,2.332336897363793e+02,
411,2.266666666668115e-03,3.000000000005828e-04,2.973282834810673e-05,-1.439940496784133e-04,3.284722327078666e+02,3.281852743481304e+00,-5.191726646309905e+01,3.413654836819080e+02,
412,2.266666666668928e-03,4.000000000002915e-04,4.130715676803877e-05,-1.457284413390240e-04,4.385455794354924e+02,5.149375422126061e+00,-5.923319878097074e+01,4.492956231753203e+02,
413,2.399999999995515e-03,-3.999999999997154e-04,-5.510497879093695e-05,-1.559925781741470e-04,-4.341438254574991e+02,-6.849976986266498e+00,4.674077765610006e+01,4.374000847335819e+02,
414,2.399999999996376e-03,-2.999999999994307e-04,-4.269058088204005e-05,-1.557445871310250e-04,-3.263405684753556e+02,-5.487892641027619e+00,2.735286997341265e+01,3.254829604959037e+02,
415,2.399999999997235e-03,-1.999999999992410e-04,-3.036575267758790e-05,-1.557907242494217e-04,-2.184411125217631e+02,-4.088664719729531e+00,9.752911502491518e+00,2.152381216462949e+02,
416,2.399999999998095e-03,-9.999999999914621e-05,-1.811253769021726e-05,-1.561298483296727e-04,-1.104757234974723e+02,-2.638418508561639e+00,-6.102644123227106e+00,1.085258190867518e+02,
417,2.399999999998955e-03,9.487311110334407e-16,-5.913211071194609e-06,-1.567607361558232e-04,-2.472696833561615e+00,-1.124462778062938e+00,-2.025630233969093e+01,4.053503266282488e+01,
418,2.399999999999815e-03,1.000000000008539e-04,6.249727304556371e-06,-1.576820870233739e-04,1.055415769720088e+02,4.647550568632361e-01,-3.274955266956962e+01,1.238195109989329e+02,
419,2.400000000000674e-03,2.000000000007589e-04,1.839355954337504e-05,-1.588925271686125e-04,2.135425366821189e+02,2.139689938450857e+00,-4.362288580583766e+01,2.286984658353515e+02,
420,2.400000000001534e-03,3.000000000005692e-04,3.053535625587915e-05,-1.603906140568492e-04,3.215073655961415e+02,3.909740413159668e+00,-5.291581024082473e+01,3.347664610077325e+02,
421,2.400000000002395e-03,4.000000000002847e-04,4.269198287838356e-05,-1.621748404979431e-04,4.294149046486384e+02,5.783290751416198e+00,-6.066687414816261e+01,4.406649779240474e+02,
422,2.533333333328600e-03,-3.999999999997221e-04,-5.846211545165914e-05,-1.726452038596521e-04,-4.251785367820826e+02,-7.209528733824037e+00,4.818712939406903e+01,4.289359969107375e+02,
423,2.533333333329507e-03,-2.999999999994443e-04,-4.547034541842647e-05,-1.724900663599567e-04,-3.197332802961786e+02,-5.605360801509955e+00,2.852739964843127e+01,3.192672860298316e+02,
424,2.533333333330413e-03,-1.999999999992590e-04,-3.256855252508911e-05,-1.726225759840820e-04,-2.141599975317382e+02,-3.999762996345973e+00,1.063222965818454e+01,2.112332866997732e+02,
425,2.533333333331321e-03,-9.999999999916651e-05,-1.973896559061953e-05,-1.730418147284816e-04,-1.084895552987271e+02,-2.378045710933142e+00,-5.540161085940614e+00,1.066884530135908e+02,
426,2.533333333332229e-03,9.261797058457422e-16,-6.964037222471239e-06,-1.737467782777535e-04,-2.750867257687441e+00,-7.267129626566593e-01,-2.003058969285186e+01,4.011228358475275e+01,
427,2.533333333333137e-03,1.000000000008335e-04,5.773562757314786e-06,-1.747363805794936e-04,1.030290310114482e+02,9.665863052776835e-01,-3.287893241418844e+01,1.214118585896254e+02,
428,2.533333333334044e-03,2.000000000007407e-04,1.849095366499102e-05,-1.760094582874602e-04,2.088249073959314e+02,2.713102141445553e+00,-4.412414360318611e+01,2.242093585471433e+02,
429,2.533333333334951e-03,3.000000000005556e-04,3.120505010594790e-05,-1.775647750698446e-04,3.146132582319855e+02,4.523024860839213e+00,-5.380427381587641e+01,3.282309436290052e+02,
430,2.533333333335859e-03,4.000000000002778e-04,4.393256792428400e-05,-1.794010257800281e-04,4.203722352015931e+02,6.405524362473974e+00,-6.195648950798994e+01,4.321144108353407e+02,
431,2.666666666661684e-03,-3.999999999997289e-04,-6.187259729318784e-05,-1.900465502334865e-04,-4.162985405010750e+02,-7.565816682013129e+00,4.949657041034417e+01,4.205497371894246e+02,
432,2.666666666662639e-03,-2.999999999994577e-04,-4.831539332840985e-05,-1.899858862997685e-04,-3.131848313983485e+02,-5.726590532215681e+00,2.960093353155980e+01,3.131061017295195e+02,
433,2.666666666663594e-03,-1.999999999992771e-04,-3.484847752267323e-05,-1.902064678645249e-04,-2.099126598778333e+02,-3.920104348443306e+00,1.144609438871684e+01,2.072606697869871e+02,
434,2.666666666664548e-03,-9.999999999918684e-05,-2.145426601404685e-05,-1.907075916880676e-04,-1.065134402517367e+02,-2.130933480142870e+00,-5.007980986829616e+00,1.048619435933724e+02,
435,2.666666666665504e-03,9.035740905494194e-16,-8.115390929490483e-06,-1.914884641808446e-04,-3.016651493855834e+00,-3.448483734204988e-01,-1.980044531600944e+01,3.969091924815410e+01,
436,2.666666666666460e-03,1.000000000008132e-04,5.185305810786034e-06,-1.925482060251594e-04,1.005500852494364e+02,1.451233621681498e+00,-3.296958718048827e+01,1.190317483251719e+02,
437,2.666666666667415e-03,2.000000000007228e-04,1.846477849106166e-05,-1.938858566525360e-04,2.041609333537292e+02,3.269292245905895e+00,-4.455284707614067e+01,2.197664128054021e+02,
438,2.666666666668370e-03,3.000000000005421e-04,3.173978341004156e-05,-1.955003785874320e-04,3.077917706868423e+02,5.120245078481613e+00,-5.458683302699013e+01,3.217591362708424e+02,
439,2.666666666669326e-03,4.000000000002710e-04,4.502688450908822e-05,-1.973906616664846e-04,4.114201234737510e+02,7.013985513389741e+00,-6.310733648917369e+01,4.236442706977707e+02,
440,2.799999999994767e-03,-3.999999999997356e-04,-6.533909408190093e-05,-2.081818892913703e-04,-4.075062479456867e+02,-7.916727908689804e+00,5.067406920229084e+01,4.122417126898633e+02,
441,2.799999999995769e-03,-2.999999999994714e-04,-5.122827154502048e-05,-2.082171372869588e-04,-3.066971051169609e+02,-5.849883929821004e+00,3.057701195699412e+01,3.069997803531731e+02,
442,2.799999999996774e-03,-1.999999999992951e-04,-3.720795539225826e-05,-2.085273090669540e-04,-2.057004441814647e+02,-3.848435064129692e+00,1.219666617750937e+01,2.033206045832225e+02,
443,2.799999999997776e-03,-9.999999999920725e-05,-2.326075091569858e-05,-2.091119078493729e-04,-1.045481638038493e+02,-1.896298249837249e+00,-4.505281079341280e+00,1.030465706956542e+02,
444,2.799999999998779e-03,8.809413701987845e-16,-9.369471669503339e-06,-2.099703427507011e-04,-3.270249373259006e+00,2.141912841680771e-02,-1.956634234618589e+01,3.927088097760875e+01,
445,2.799999999999782e-03,1.000000000007928e-04,4.482866344870449e-06,-2.111019334369369e-04,9.810515089048054e+01,1.918465248062292e+00,-3.302324128080712e+01,1.166791170417183e+02,
446,2.800000000000785e-03,2.000000000007047e-04,1.831305032645889e-05,-2.125059146292968e-04,1.995516548157703e+02,3.807486557238123e+00,-4.491192437462524e+01,2.153696896300702e+02,
447,2.800000000001788e-03,3.000000000005286e-04,3.213767616015636e-05,-2.141814404778576e-04,3.010445795502207e+02,5.700067522754548e+00,-5.526757265050878e+01,3.153512313777436e+02,
448,2.800000000002792e-03,4.000000000002643e-04,4.597315374609293e-05,-2.161275888151181e-04,4.025608792731454e+02,7.606767700630691e+00,-6.412461330575756e+01,4.152548788087699e+02,
449,2.933333333327852e-03,-3.999999999997424e-04,-6.886405042049051e-05,-2.270366196148666e-04,-3.988038723893103e+02,-8.260349186903341e+00,5.172451838861305e+01,4.040123101162696e+02,
450,2.933333333328903e-03,-2.999999999994850e-04,-5.421130018017004e-05,-2.271690428678329e-04,-3.002718406568894e+02,-5.973692882888873e+00,3.145912029733055e+01,3.009486746651912e+02,
451,2.933333333329954e-03,-1.999999999993132e-04,-3.964918537233323e-05,-2.275701485516712e-04,-2.015245958771692e+02,-3.783604617693863e+00,1.288607301521712e+01,1.994133975822435e+02,
452,2.933333333331004e-03,-9.999999999922755e-05,-2.516050207016103e-05,-2.282396381758433e-04,-1.025944571159482e+02,-1.673414789399793e+00,-4.031245443729842e+00,1.012425826596070e+02,
453,2.933333333332054e-03,8.584170700653981e-16,-1.072824698069092e-05,-2.291771156828708e-04,-3.511856650951602e+00,3.723646941229362e-01,-1.932873371340969e+01,3.885211658729977e+01,
454,2.933333333333106e-03,1.000000000007726e-04,3.664388002336642e-06,-2.303820921087095e-04,9.569458704932185e+01,2.368083804011148e+00,-3.304157377145684e+01,1.143539181540164e+02,
455,2.933333333334156e-03,2.000000000006866e-04,1.803402110743458e-05,-2.318539901021964e-04,1.949980010069160e+02,4.326995278079787e+00,-4.520423829118735e+01,2.110192528268255e+02,
456,2.933333333335208e-03,3.000000000005149e-04,3.239708585793953e-05,-2.335921483151592e-04,2.943731937619672e+02,6.261293069739626e+00,-5.585049826065426e+01,3.090074108243059e+02,
457,2.933333333336259e-03,4.000000000002576e-04,4.676983611355277e-05,-2.355958256740615e-04,3.937965956381374e+02,8.182148519600439e+00,-6.501343056504280e+01,4.069465400293723e+02,
458,3.066666666660935e-03,-3.999999999997492e-04,-7.244969356137429e-05,-2.465962691566351e-04,-3.901934277668332e+02,-8.594952572534510e+00,5.265273522175290e+01,3.958618930586044e+02,
459,3.066666666662034e-03,-2.999999999994985e-04,-5.726658049296383e-05,-2.468269624588550e-04,-2.939106345469220e+02,-6.096606887383928e+00,3.225069474695346e+01,2.949531212993855e+02,
460,3.066666666663133e-03,-1.999999999993312e-04,-4.217414630296161e-05,-2.473201775733228e-04,-1.973862685762278e+02,-3.724553698374791e+00,1.351641776242072e+01,1.955393413253302e+02,
461,3.066666666664232e-03,-9.999999999924788e-05,-2.715537926789983e-05,-2.480758062855905e-04,-1.006530082981666e+02,-1.461603830630184e+00,-3.585059794521190e+00,9.945021536006635e+01,
462,3.066666666665330e-03,8.357843497147632e-16,-1.219346078880329e-05,-2.490936396228247e-04,-3.741675424463436e+00,7.082624055412694e-01,-1.908805118438191e+01,3.843457738496992e+01,
463,3.066666666666429e-03,1.000000000007522e-04,2.728239707121931e-06,-2.503733725060436e-04,9.331869577834742e+01,2.799936046909712e+00,-3.302622156008879e+01,1.120561069529994e+02,
464,3.066666666667528e-03,2.000000000006686e-04,1.762616975058463e-05,-2.519146082676587e-04,1.905007932391098e+02,4.827218404313134e+00,-4.543259144911485e+01,2.067151611640074e+02,
465,3.066666666668627e-03,3.000000000005014e-04,3.251659870079334e-05,-2.537168630432182e-04,2.877789657189142e+02,6.802858051931143e+00,-5.633954065572778e+01,3.027278455062925e+02,
466,3.066666666669725e-03,4.000000000002507e-04,4.741562250658487e-05,-2.557795700459304e-04,3.851291651909913e+02,8.738585965774986e+00,-6.577881225788305e+01,3.987195464204448e+02,
467,3.199999999994019e-03,-3.999999999997560e-04,-7.609804107737616e-05,-2.668464977379481e-04,-3.816767346109103e+02,-8.918983986805840e+00,5.346345943950669e+01,3.877908026646599e+02,
468,3.199999999995167e-03,-2.999999999995122e-04,-6.039600272520752e-05,-2.671763937175224e-04,-2.876149444324072e+02,-6.217343986000794e+00,3.295512283085718e+01,2.890134426288558e+02,
469,3.199999999996313e-03,-1.999999999993494e-04,-4.478460460448377e-05,-2.677627319198188e-04,-1.932865282139734e+02,-3.670306599797918e+00,1.408978013451350e+01,1.916987196519367e+02,
470,3.199999999997458e-03,-9.999999999926824e-05,-2.924702842721124e-05,-2.686055865489832e-04,-9.872446686293492e+01,-1.260225491819147e+00,-3.165909644290440e+00,9.766969991532872e+01,
471,3.199999999998605e-03,8.132058394727526e-16,-1.376664165299541e-05,-2.697049281172160e-04,-3.959917241330000e+00,1.029390556020820e+00,-1.884470476143784e+01,3.801821645579572e+01,
472,3.199999999999752e-03,1.000000000007319e-04,1.673007279856991e-06,-2.710606280748355e-04,9.097772226278509e+01,3.213916122872588e+00,-3.297878013793775e+01,1.097856339677915e+02,
473,3.200000000000897e-03,2.000000000006504e-04,1.708819362837524e-05,-2.726724633120649e-04,1.860607495943170e+02,5.307646138481605e+00,-4.559972754394836e+01,2.024574647110974e+02,
474,3.200000000002044e-03,3.000000000004879e-04,3.249502092440141e-05,-2.745401205389588e-04,2.812631002444700e+02,7.323831334608354e+00,-5.673855628864455e+01,2.965126947193800e+02,
475,3.200000000003190e-03,4.000000000002440e-04,4.790942546247784e-05,-2.766632005498178e-04,3.765602916779622e+02,9.274712203157385e+00,-6.642569415255414e+01,3.905741776727409e+02,
476,3.333333333327104e-03,-3.999999999997627e-04,-7.981090840506674e-05,-2.877730993158839e-04,-3.732554290315995e+02,-9.231053487870087e+00,5.416135021909043e+01,3.797993594257658e+02,
477,3.333333333328297e-03,-2.999999999995255e-04,-6.360125380242933e-05,-2.882029746827493e-04,-2.813860943612850e+02,-6.334743453969928e+00,3.357574159915089e+01,2.831299477831174e+02,
478,3.333333333329492e-03,-1.999999999993674e-04,-4.748212212556786e-05,-2.888832939289517e-04,-1.892263562596011e+02,-3.619965965835279e+00,1.460821602363410e+01,1.878918093463745e+02,
479,3.333333333330686e-03,-9.999999999928851e-05,-3.143688958074676e-05,-2.898143059813438e-04,-9.680944537049135e+01,-1.068675821761643e+00,-2.772980382563158e+00,9.590126503123558e+01,
480,3.333333333331881e-03,7.906273292307420e-16,-1.544911088579553e-05,-2.909961533829947e-04,-4.166802861416166e+00,1.336033303878191e+00,-1.859908261808618e+01,3.760298795042295e+01,
481,3.333333333333075e-03,1.000000000007115e-04,4.974851876050881e-07,-2.924288768900497e-04,8.867185753923130e+01,3.609965187449466e+00,-3.290080345890100e+01,1.075424428001849e+02,
482,3.333333333334269e-03,2.000000000006324e-04,1.641900019246573e-05,-2.941124199463043e-04,1.816784904446024e+02,5.767856181339145e+00,-4.570833085587444e+01,1.982462037099927e+02,
483,3.333333333335464e-03,3.000000000004743e-04,3.233137030600983e-05,-2.960466330400332e-04,2.748266625852504e+02,7.823409091417712e+00,-5.705132589167407e+01,2.903621058614293e+02,
484,3.333333333336657e-03,4.000000000002372e-04,4.825037055229959e-05,-2.982312779476426e-04,3.680914993506415e+02,9.789325842559547e+00,-6.695892110970209e+01,3.825107005108704e+02,
485,3.466666666660188e-03,-3.999999999997696e-04,-8.358991626567182e-05,-3.093620040568331e-04,-3.649309726127287e+02,-9.529926478005837e+00,5.475098307069372e+01,3.718878650648405e+02,
486,3.466666666661430e-03,-2.999999999995389e-04,-6.688382490031065e-05,-3.098924857220719e-04,-2.752252808270007e+02,-6.447759425547382e+00,3.411583506141806e+01,2.773029333030219e+02,
487,3.466666666662673e-03,-1.999999999993854e-04,-5.026806385079892e-05,-3.106674943151045e-04,-1.852066528337153e+02,-3.572708721444778e+00,1.507375573303984e+01,1.841188803501064e+02,
488,3.466666666663915e-03,-9.999999999930887e-05,-3.372620471844432e-05,-3.116874459528900e-04,-9.490852015932714e+01,-8.863848710171212e-01,-2.405458274832732e+00,9.414513711403853e+01,
489,3.466666666665156e-03,7.680488189887313e-16,-1.724199052579238e-05,-3.129526479035633e-04,-4.362560777555908e+00,1.628480552063969e+00,-1.835155143334609e+01,3.718884693367356e+01,
490,3.466666666666398e-03,1.000000000006912e-04,-7.993315534856551e-07,-3.144633031413183e-04,8.640124217440480e+01,3.988069240171859e+00,-3.279380363132859e+01,1.053264700800722e+02,
491,3.466666666667640e-03,2.000000000006144e-04,1.561769875672337e-05,-3.162195147844883e-04,1.773545442295188e+02,6.207509479763560e+00,-4.576102519973458e+01,1.940814087257121e+02,
492,3.466666666668882e-03,3.000000000004608e-04,3.202486783286598e-05,-3.182212904200525e-04,2.684705859228766e+02,8.300908450508267e+00,-5.728155253623972e+01,2.842762144814865e+02,
493,3.466666666670125e-03,4.000000000002305e-04,4.843778793903750e-05,-3.204685463178550e-04,3.597241415288001e+02,1.028138351999192e+01,-6.738324420651853e+01,3.745293680393885e+02,
494,3.599999999993272e-03,-3.999999999997763e-04,-8.743649796357427e-05,-3.315992802394191e-04,-3.567046622615430e+02,-9.814515448024785e+00,5.523684702824573e+01,3.640566041631321e+02,
495,3.599999999994562e-03,-2.999999999995527e-04,-7.024501887638968e-05,-3.322308513089097e-04,-2.691335790755107e+02,-6.555455020367189e+00,3.457863159786513e+01,2.715326836405552e+02,
496,3.599999999995851e-03,-1.999999999994036e-04,-5.314360546447356e-05,-3.331011138270065e-04,-1.812282399601730e+02,-3.527782554037454e+00,1.548840194167136e+01,1.803801955348116e+02,
497,3.599999999997141e-03,-9.999999999932920e-05,-3.611602547999072e-05,-3.342106437319248e-04,-9.302223196577305e+01,-7.128154223384122e-01,-2.062531789653978e+00,9.240153966316068e+01,
498,3.599999999998431e-03,7.454160986380964e-16,-1.914621115435804e-05,-3.355599058613438e-04,-4.547425497138335e+00,1.907027088585441e+00,-1.810245695358878e+01,3.677574947173063e+01,
499,3.599999999999720e-03,1.000000000006709e-04,-2.218255314551538e-06,-3.371492584581569e-04,8.416597008865062e+01,4.348256226858915e+00,-3.265925068305847e+01,1.031376462153285e+02,
500,3.600000000001010e-03,2.000000000005963e-04,1.468359244558950e-05,-3.389789575644953e-04,1.730893531442512e+02,6.626345367227589e+00,-4.576037286330893e+01,1.899631013026732e+02,
501,3.600000000002299e-03,3.000000000004473e-04,3.157492953898377e-05,-3.410491613063508e-04,2.621956785964603e+02,8.755760735815560e+00,-5.743285974453843e+01,2.782551445687100e+02,
502,3.600000000003589e-03,4.000000000002236e-04,4.847120410485585e-05,-3.433599340712237e-04,3.514594089359113e+02,1.074999128659409e+01,-6.770331811126718e+01,3.666304193708408e+02,
503,3.733333333326356e-03,-3.999999999997831e-04,-9.135190656054446e-05,-3.544711360018224e-04,-3.485776396526770e+02,-1.008387206420486e+01,5.562334225414311e+01,3.563058454619076e+02,
504,3.733333333327694e-03,-2.999999999995662e-04,-7.368595756663027e-05,-3.552041416448334e-04,-2.631119493994029e+02,-6.656996748453158e+00,3.496730165049806e+01,2.658194715931634e+02,
505,3.733333333329032e-03,-1.999999999994216e-04,-5.610974076986782e-05,-3.561700847505445e-04,-1.772918649600448e+02,-3.484502634213257e+00,1.585412777416025e+01,1.766760104501471e+02,
506,3.733333333330370e-03,-9.999999999934950e-05,-3.860722069503651e-05,-3.573696938731234e-04,-9.115108670049077e+01,-5.474619426871712e-01,-1.743392952427838e+00,9.067069259247543e+01,
507,3.733333333331707e-03,7.228646934503979e-16,-2.116251955386965e-05,-3.588035844156207e-04,-4.721635985230162e+00,2.171971512773881e+00,-1.785212465360765e+01,3.636365277207891e+01,
508,3.733333333333044e-03,1.000000000006505e-04,-3.759913626837335e-06,-3.604722630805842e-04,8.196609218872877e+01,4.690592964844310e+00,-3.249857247121211e+01,1.009758962870202e+02,
509,3.733333333334383e-03,2.000000000005781e-04,1.361617030989418e-05,-3.623761322137326e-04,1.688832785858250e+02,7.024176594533710e+00,-4.570887375305198e+01,1.858912947303262e+02,
510,3.733333333335719e-03,3.000000000004337e-04,3.098115851208055e-05,-3.645154940424157e-04,2.560026310940795e+02,9.187504692299882e+00,-5.750878990844461e+01,2.722990089729688e+02,
511,3.733333333337058e-03,4.000000000002168e-04,4.835033375021882e-05,-3.668905548106800e-04,3.432983379929735e+02,1.119439609458302e+01,-6.792369888217794e+01,3.588140795785426e+02,
512,3.866666666659441e-03,-3.999999999997898e-04,-9.533722192343911e-05,-3.779639209440014e-04,-3.405509001797828e+02,-1.033717950705274e+01,5.591477806996620e+01,3.486358428890840e+02,
513,3.866666666660826e-03,-2.999999999995798e-04,-7.720758894624349e-05,-3.787985741372060e-04,-2.571612432912763e+02,-6.751649096969222e+00,3.528495577873775e+01,2.601635587121830e+02,
514,3.866666666662211e-03,-1.999999999994396e-04,-5.916728896409031e-05,-3.798604922667054e-04,-1.733982039170313e+02,-3.442248431673292e+00,1.617287511246468e+01,1.730065731773060e+02,
515,3.866666666663597e-03,-9.999999999936983e-05,-4.120048377140421e-05,-3.811505494602931e-04,-8.929555642651788e+01,-3.898495676272784e-01,-1.447238597500860e+00,8.895281170548445e+01,
516,3.866666666664982e-03,7.002861832083873e-16,-2.329148620753299e-05,-3.826695048339859e-04,-4.885434373602918e+00,2.423615184428447e+00,-1.760086042794196e+01,3.595251530362418e+01,
517,3.866666666666367e-03,1.000000000006302e-04,-5.424756790910687e-06,-3.844180068823427e-04,7.980161970185728e+01,5.015182138346310e+00,-3.231315474299456e+01,9.884114083325714e+01,
518,3.866666666667753e-03,2.000000000005602e-04,1.241509961042839e-05,-3.863965977664565e-04,1.647366063111910e+02,7.400884480930667e+00,-4.560896480484484e+01,1.818659947492311e+02,
519,3.866666666669138e-03,3.000000000004200e-04,3.024333707155145e-05,-3.886057175009128e-04,2.498920228374976e+02,9.595779888025998e+00,-5.751280308263389e+01,2.664079098850460e+02,
520,3.866666666670523e-03,4.000000000002101e-04,4.807507186686843e-05,-3.910457080411059e-04,3.352418190789181e+02,1.161397751558114e+01,-6.804884222182298e+01,3.510805599087857e+02,
521,3.999999999992524e-03,-3.999999999997966e-04,-9.939335764335044e-05,-4.020641275929492e-04,-3.326253014486107e+02,-1.057374503515307e+01,5.611537138353121e+01,3.410468363881668e+02,
522,3.999999999993957e-03,-2.999999999995932e-04,-8.081069415410463e-05,-4.030005147402786e-04,-2.512822093951987e+02,-6.838769255030751e+00,3.553464307389456e+01,2.545651956986976e+02,
523,3.999999999995391e-03,-1.999999999994578e-04,-6.231690176881677e-05,-4.041585756727518e-04,-1.695478651637846e+02,-3.400460585238363e+00,1.644655317163733e+01,1.693721243094539e+02,
524,3.999999999996824e-03,-9.999999999939018e-05,-4.389633993207309e-05,-4.055393232116458e-04,-8.745608049878746e+01,-2.395330499243986e-01,-1.173271479835749e+00,8.724810836208063e+01,
525,3.999999999998257e-03,6.776805679120645e-16,-2.553351264174583e-05,-4.071436534852613e-04,-5.039064917098766e+00,2.662261281207799e+00,-1.734895127813537e+01,3.554229687312263e+01,
526,3.999999999999691e-03,1.000000000006099e-04,-7.213065323095064e-06,-4.089723502544428e-04,7.767252722170225e+01,5.322159457568498e+00,-3.210434132703722e+01,9.673329645875324e+01,
527,4.000000000001122e-03,2.000000000005421e-04,1.108021826879103e-05,-4.110260891402804e-04,1.606495513181836e+02,7.756414274940294e+00,-4.546301965238061e+01,1.778872001538474e+02,
528,4.000000000002557e-03,3.000000000004065e-04,2.936141911763911e-05,-4.133054417549600e-04,2.438643287566882e+02,9.980320363953227e+00,-5.744827613845005e+01,2.605819393338137e+02,
529,4.000000000003990e-03,4.000000000002033e-04,4.764548598575163e-05,-4.158108797367999e-04,3.272906047041001e+02,1.200823974630490e+01,-6.808310215970346e+01,3.434300581663387e+02,
530,4.133333333325604e-03,-3.999999999998035e-04,-1.035210678246110e-04,-4.267583927379717e-04,-3.248015713579849e+02,-1.079299275786438e+01,5.622924547066066e+01,3.335390526149334e+02,
531,4.133333333327047e-03,-2.999999999996069e-04,-8.449589438016431e-05,-4.277964791667036e-04,-2.454754992537036e+02,-6.917801975265771e+00,3.571934989341868e+01,2.490246227946639e+02,
532,4.133333333328488e-03,-1.999999999994759e-04,-6.555907041714172e-05,-4.290507294737179e-04,-1.657413927289445e+02,-3.358637811279714e+00,1.667703731823400e+01,1.657728970293560e+02,
533,4.133333333329928e-03,-9.999999999941048e-05,-4.669515330175935e-05,-4.305222884548748e-04,-8.563306680834901e+01,-9.609566351893406e-02,-9.207012520337798e-01,8.555678930285710e+01,
534,4.133333333331369e-03,6.550749526157418e-16,-2.788883861208408e-05,-4.322121827014196e-04,-5.182773152053494e+00,2.888213974446986e+00,-1.709666598493505e+01,3.513295866274112e+01,
535,4.133333333332810e-03,1.000000000005896e-04,-9.124957240187956e-06,-4.341213248567509e-04,7.557875551124508e+01,5.611691000451911e+00,-3.187343443376616e+01,9.465227628890841e+01,
536,4.133333333334252e-03,2.000000000005239e-04,9.611527484734616e-06,-4.362505177798138e-04,1.566222624802718e+02,8.090770743615934e+00,-4.527334851626155e+01,1.739549032968482e+02,
537,4.133333333335692e-03,3.000000000003930e-04,2.833552265150919e-05,-4.386004586157889e-04,2.379199256519815e+02,1.034094854886503e+01,-5.731850223535080e+01,2.548211796796265e+02,
538,4.133333333337133e-03,4.000000000001965e-04,4.706180860022190e-05,-4.411717427748692e-04,3.194453175345338e+02,1.237680391264737e+01,-6.803073011580359e+01,3.358627592013022e+02,
539,4.266666666658682e-03,-3.999999999998102e-04,-1.077209537424939e-04,-4.520334986424673e-04,-3.170803158357650e+02,-1.099445663117434e+01,5.626042907429247e+01,3.261127055536267e+02,
540,4.266666666660132e-03,-2.999999999996203e-04,-8.826365761539896e-05,-4.531731339760243e-04,-2.397416728505727e+02,-6.988274572492443e+00,3.584199886933144e+01,2.435420701681566e+02,
541,4.266666666661582e-03,-1.999999999994939e-04,-6.889413249676621e-05,-4.545235043510043e-04,-1.619792697269361e+02,-3.316333865811027e+00,1.686616809488459e+01,1.622091172557544e+02,
542,4.266666666663031e-03,-9.999999999943079e-05,-4.959713384379110e-05,-4.560858799791165e-04,-8.382689308136516e+01,4.085192675989013e-02,-6.887453209341432e-01,8.387905658277467e+01,
543,4.266666666664481e-03,6.325235474280433e-16,-3.035754913390105e-05,-4.578614115159367e-04,-5.316805195312017e+00,3.101777713710620e+00,-1.684425576364797e+01,3.472446323733225e+01,
544,4.266666666665931e-03,1.000000000005692e-04,-1.116039518349688e-05,-4.598511342454490e-04,7.352021410466972e+01,5.883970721903365e+00,-3.162169504332840e+01,9.259799030532922e+01,
545,4.266666666667380e-03,2.000000000005059e-04,8.009184519114280e-06,-4.620559721755943e-04,1.526548269607626e+02,8.404013981506875e+00,-4.504219828306033e+01,1.700690905187016e+02,
546,4.266666666668830e-03,3.000000000003795e-04,2.716592246563826e-05,-4.644767420452508e-04,2.320590983404813e+02,1.067756943360368e+01,-5.712669056314423e+01,2.491257040932060e+02,
547,4.266666666670279e-03,4.000000000001897e-04,4.632442976424313e-05,-4.671141572431849e-04,3.117064582168986e+02,1.271940066825447e+01,-6.789587429496166e+01,3.283788354427020e+02,
548,4.399999999991761e-03,-3.999999999998170e-04,-1.119934703688635e-04,-4.778763741384190e-04,-3.094620262618744e+02,-1.117777367301212e+01,5.621285578522433e+01,3.187679970834869e+02,
549,4.399999999993220e-03,-2.999999999996339e-04,-9.211430526401145e-05,-4.791172975463528e-04,-2.340812039540855e+02,-7.049792062984819e+00,3.590544815408347e+01,2.381177582916673e+02,
550,4.399999999994677e-03,-1.999999999995120e-04,-7.232227864967427e-05,-4.805636080143809e-04,-1.582619216622343e+02,-3.273154565975107e+00,1.701575042218768e+01,1.586810038276139e+02,
551,4.399999999996134e-03,-9.999999999945120e-05,-5.260234414784719e-05,-4.822166947702980e-04,-8.203790820117287e+01,1.716728116502786e-01,-4.766296076011471e-01,8.221510757418797e+01,
552,4.399999999997593e-03,6.099179321317205e-16,-3.293958135836450e-05,-4.840778262853154e-04,-5.441407147199676e+00,3.303256600004541e+00,-1.659195490671380e+01,3.431677453603942e+01,
553,4.399999999999051e-03,1.000000000005489e-04,-1.331919338314864e-05,-4.861481543833284e-04,7.149678375096801e+01,6.139218114676019e+00,-3.135034336845541e+01,9.057034560595670e+01,
554,4.400000000000508e-03,2.000000000004878e-04,6.273495641526407e-06,-4.884287182655252e-04,1.487472744270443e+02,8.696255418583691e+00,-4.477175274009983e+01,1.662297425221815e+02,
555,4.400000000001965e-03,3.000000000003659e-04,2.585304300370690e-05,-4.909204484505217e-04,2.262820455806012e+02,1.099016498708329e+01,-5.687596631634626e+01,2.434955770176662e+02,
556,4.400000000003424e-03,4.000000000001830e-04,4.543388986488854e-05,-4.936241706303337e-04,3.040744129704434e+02,1.303586307617794e+01,-6.768257937285954e+01,3.209784474490625e+02,
557,4.533333333324842e-03,-3.999999999998237e-04,-1.163389327653171e-04,-5.042740956096843e-04,-3.019470866058931e+02,-1.134267740574365e+01,5.609036367599201e+01,3.115051175113950e+02,
558,4.533333333326307e-03,-2.999999999996476e-04,-9.604801861774634e-05,-5.056159409354911e-04,-2.284944852784390e+02,-7.102032456443812e+00,3.591249087212092e+01,2.327518983147077e+02,
559,4.533333333327773e-03,-1.999999999995300e-04,-7.584355912857003e-05,-5.071579059438866e-04,-1.545897196467918e+02,-3.228754884661420e+00,1.712755294696743e+01,1.551887687093611e+02,
560,4.533333333329239e-03,-9.999999999947150e-05,-5.571070606915016e-05,-5.089014926366545e-04,-8.026643352577635e+01,2.967049875961951e-01,-2.835892212570457e-01,8.056513500584794e+01,
561,4.533333333330704e-03,5.873123168353978e-16,-3.563473129474135e-05,-5.108480812009003e-04,-5.556824565616941e+00,3.492953831752077e+00,-1.633998141305744e+01,3.390985784927059e+01,
562,4.533333333332170e-03,1.000000000005286e-04,-1.560102446359326e-05,-5.129989340404084e-04,6.950831872079995e+01,6.377676001729069e+00,-3.106055938089878e+01,8.856924661721096e+01,
563,4.533333333333636e-03,2.000000000004697e-04,4.404909241640147e-06,-5.153551997266047e-04,1.448995810844858e+02,8.967654015141918e+00,-4.446413294761023e+01,1.624368347140403e+02,
564,4.533333333335101e-03,3.000000000003524e-04,2.439745138898190e-05,-5.179179168690912e-04,2.205888857831337e+02,1.127878880875738e+01,-5.656937086902316e+01,2.379308546143000e+02,
565,4.533333333336565e-03,4.000000000001763e-04,4.439087256812746e-05,-5.206880179058543e-04,2.965494609240417e+02,1.332611976369148e+01,-6.739478643969048e+01,3.136617444557721e+02,
566,4.666666666657922e-03,-3.999999999998306e-04,-1.207575223436147e-04,-5.312138878700319e-04,-2.945357802982274e+02,-1.148899152871847e+01,5.589669516624313e+01,3.043242460842754e+02,
567,4.666666666659392e-03,-2.999999999996610e-04,-1.000648451924094e-04,-5.326561886375108e-04,-2.229818334587067e+02,-7.144742197961941e+00,3.586585475309602e+01,2.274446924256088e+02,
568,4.666666666660867e-03,-1.999999999995481e-04,-7.945789021040216e-05,-5.342934220277576e-04,-1.509629835170746e+02,-3.182836122435758e+00,1.720330752244544e+01,1.517326172015381e+02,
569,4.666666666662342e-03,-9.999999999949183e-05,-5.892200721966010e-05,-5.361271967306899e-04,-7.851276418965159e+01,4.162624995148398e-01,-1.088690629272762e-01,7.892932702101670e+01,
570,4.666666666663816e-03,5.647880167020114e-16,-3.844266037973309e-05,-5.381589986974310e-04,-5.663302001108431e+00,3.671171204943446e+00,-1.608853760898030e+01,3.350367979217798e+01,
571,4.666666666665289e-03,1.000000000005083e-04,-1.800542609128448e-05,-5.403901950914902e-04,6.755464899535815e+01,6.599608445571123e+00,-3.075348338899800e+01,8.659459527392968e+01,
572,4.666666666666762e-03,2.000000000004517e-04,2.404009103160336e-06,-5.428220381637393e-04,1.411116735393815e+02,9.218412627888476e+00,-4.412139772341295e+01,1.586903375197669e+02,
573,4.666666666668236e-03,3.000000000003387e-04,2.279985062006769e-05,-5.454556690509499e-04,2.149796624972367e+02,1.154356099544976e+01,-5.620986212292622e+01,2.324315851896185e+02,
574,4.666666666669711e-03,4.000000000001695e-04,4.319619793666330e-05,-5.482921214977822e-04,2.891317811929107e+02,1.359018834400047e+01,-6.703633317124745e+01,3.064288649097871e+02,
575,4.799999999990998e-03,-3.999999999998373e-04,-1.252492929934141e-04,-5.586831249417626e-04,-2.872282968474036e+02,-1.161662382428988e+01,5.563549709482645e+01,2.972255514833028e+02,
576,4.799999999992481e-03,-2.999999999996746e-04,-1.041647049267653e-04,-5.602253192407451e-04,-2.175434938536016e+02,-7.177731768970091e+00,3.576820192915055e+01,2.221963342056429e+02,
577,4.799999999993963e-03,-1.999999999995662e-04,-8.316506046738881e-05,-5.619573391024555e-04,-1.473819848555855e+02,-3.135143163273323e+00,1.724470880147094e+01,1.483127481533435e+02,
578,4.799999999995443e-03,-9.999999999951215e-05,-6.223590731196069e-05,-5.638808939738110e-04,-7.677717038466864e+01,5.306365662465975e-01,4.827563313462058e-02,7.730786724329546e+01,
579,4.799999999996927e-03,5.421552963513765e-16,-4.136290189468672e-05,-5.659975697647338e-04,-5.761082573911449e+00,3.838208664620081e+00,-1.583781076072489e+01,3.309820827555897e+01,
580,4.799999999998411e-03,1.000000000004879e-04,-2.053180746551441e-05,-5.683088327172322e-04,6.563558234777150e+01,6.805298766578224e+00,-3.043021666463404e+01,8.464629118437442e+01,
581,4.799999999999892e-03,2.000000000004336e-04,2.715078392729743e-07,-5.708160332023994e-04,1.373834324953039e+02,9.448774537932509e+00,-4.374554423266461e+01,1.549902166832400e+02,
582,4.800000000001373e-03,3.000000000003252e-04,2.106107293272782e-05,-5.735204094448801e-04,2.094543496831763e+02,1.178466322446715e+01,-5.580031501323691e+01,2.269978096083534e+02,
583,4.800000000002857e-03,4.000000000001626e-04,4.185081571839295e-05,-5.764230911745127e-04,2.818214596847201e+02,1.382816909427793e+01,-6.661095420865034e+01,2.992799369885005e+02,
584,4.933333333324077e-03,-3.999999999998441e-04,-1.298141770774999e-04,-5.866693307405824e-04,-2.800247382022342e+02,-1.172556029104142e+01,5.531032098457701e+01,2.902091923035686e+02,
585,4.933333333325567e-03,-2.999999999996882e-04,-1.083473962442293e-04,-5.883107659929440e-04,-2.121796451711804e+02,-7.200871441964786e+00,3.562212887833515e+01,2.170070089716732e+02,
586,4.933333333327058e-03,-1.999999999995842e-04,-8.696473689614579e-05,-5.901369994006782e-04,-1.438469499121397e+02,-3.085461817294641e+00,1.725341393386461e+01,1.449293541701208e+02,
587,4.933333333328549e-03,-9.999999999953243e-05,-6.565194435657137e-05,-5.921498353896529e-04,-7.505989860999907e+01,6.400966881873096e-01,1.885788162270030e-01,7.570093484247839e+01,
588,4.933333333330037e-03,5.196038911636780e-16,-4.439486723164845e-05,-5.943509541687042e-04,-5.850407591723566e+00,3.994363898322213e+00,-1.558797367679906e+01,3.269341247232445e+01,
589,4.933333333331529e-03,1.000000000004676e-04,-2.317945565353245e-05,-5.967419155150295e-04,6.375090632060694e+01,6.995047660532181e+00,-3.009182210926602e+01,8.272423178044767e+01,
590,4.933333333333019e-03,2.000000000004156e-04,-1.991759511676056e-06,-5.993241624915180e-04,1.337146962897851e+02,9.659020133132021e+00,-4.333850866515799e+01,1.513364335510926e+02,
591,4.933333333334510e-03,3.000000000003117e-04,1.918207332638959e-05,-6.020990250953914e-04,2.040128567729033e+02,1.200233404264705e+01,-5.534352215080082e+01,2.216295616910591e+02,
592,4.933333333336001e-03,4.000000000001559e-04,4.035579880395852e-05,-6.050677238376613e-04,2.746184956412077e+02,1.404023888858199e+01,-6.612228172344729e+01,2.922150791001331e+02,
593,5.066666666657157e-03,-3.999999999998508e-04,-1.344519912948184e-04,-6.151601796722390e-04,-2.729251248694987e+02,-1.181585950859936e+01,5.492462347913514e+01,2.832753175174420e+02,
594,5.066666666658655e-03,-2.999999999997017e-04,-1.126126019778234e-04,-6.169001172792336e-04,-2.068904039220441e+02,-7.214087191693160e+00,3.543016650594770e+01,2.118768941096602e+02,
595,5.066666666660155e-03,-1.999999999996023e-04,-9.085647090557586e-05,-6.188199049130698e-04,-1.403580624281852e+02,-3.033616251949868e+00,1.723104235719659e+01,1.415826218166331e+02,
596,5.066666666661652e-03,-9.999999999955284e-05,-6.916954071356630e-05,-6.209214363518970e-04,-7.336117289587187e+01,7.448917294225925e-01,3.127631873715018e-01,7.410870460002533e+01,
597,5.066666666663151e-03,4.969169607044188e-16,-4.753785200928066e-05,-6.232064805875079e-04,-5.931516201680616e+00,4.139931967510851e+00,-1.533918530296984e+01,3.228926278594935e+01,
598,5.066666666664648e-03,1.000000000004473e-04,-2.594754177114295e-05,-6.256766855257500e-04,6.190039011041969e+01,7.169171414511698e+00,-2.973932495573448e+01,8.082831246061242e+01,
599,5.066666666666147e-03,2.000000000003975e-04,-4.384841731657579e-06,-6.283335816228138e-04,1.301052642791087e+02,9.849463743425321e+00,-4.290216699373516e+01,1.477289453475906e+02,
600,5.066666666667646e-03,3.000000000002981e-04,1.716392325380196e-05,-6.311785854565634e-04,1.986550335138508e+02,1.219686435328850e+01,-5.484219459058655e+01,2.163268685964734e+02,
601,5.066666666669145e-03,4.000000000001490e-04,3.871233685169205e-05,-6.342130032322677e-04,2.675228079155366e+02,1.422664537912816e+01,-6.557384615231950e+01,2.852344003666158e+02,
602,5.199999999990235e-03,-3.999999999998577e-04,-1.391624424118058e-04,-6.441434971462671e-04,-2.659294017890865e+02,-1.188764722846889e+01,5.448176693965527e+01,2.764240669256292e+02,
603,5.199999999991743e-03,-2.999999999997153e-04,-1.169598951590626e-04,-6.459811170182660e-04,-2.016758287102418e+02,-7.217356766741556e+00,3.519478034538698e+01,2.068061593977346e+02,
604,5.199999999993248e-03,-1.999999999996205e-04,-9.483970416435382e-05,-6.479937176691324e-04,-1.369154663600545e+02,-2.979466510904505e+00,1.717917567584258e+01,1.382727318136058e+02,
605,5.199999999994755e-03,-9.999999999957314e-05,-7.278800899946926e-05,-6.501832767522047e-04,-7.168119598976980e+01,8.452509788675346e-01,4.215398164065540e-01,7.253134696916794e+01,
606,5.199999999996262e-03,4.743926605710325e-16,-5.079104203979191e-05,-6.525516466686921e-04,-6.004645075599907e+00,4.275204975435398e+00,-1.509159130691558e+01,3.188573081758751e+01,
607,5.199999999997768e-03,1.000000000004270e-04,-2.883512701008978e-05,-6.551005581821103e-04,6.008378635471716e+01,7.328000213546784e+00,-2.937371349992456e+01,7.895842672239303e+01,
608,5.199999999999276e-03,2.000000000003794e-04,-6.906677511017455e-06,-6.578316239724086e-04,1.265549000655969e+02,1.002045061800955e+01,-4.243833580332787e+01,1.441677054373703e+02,
609,5.200000000000780e-03,3.000000000002846e-04,1.500780447222821e-05,-6.607463421287928e-04,1.933806746109081e+02,1.236859310226191e+01,-5.429896271095109e+01,2.110897511913684e+02,
610,5.200000000002287e-03,4.000000000001424e-04,3.692173007817987e-05,-6.638460995804361e-04,2.605342409881418e+02,1.438770142118499e+01,-6.496907708542429e+01,2.783380010888105e+02,
611,5.333333333323314e-03,-3.999999999998643e-04,-1.439451328625808e-04,-6.736072600119939e-04,-2.590374439665145e+02,-1.194111118722929e+01,5.398502018416206e+01,2.696555715910739e+02,
612,5.333333333324830e-03,-2.999999999997289e-04,-1.213887446715128e-04,-6.755416649818220e-04,-1.965359243487199e+02,-7.210705910077165e+00,3.491837087533727e+01,2.017949673187867e+02,
613,5.333333333326345e-03,-1.999999999996384e-04,-9.891377430891135e-05,-6.776462599426672e-04,-1.335192685062842e+02,-2.922906122587172e+00,1.709935761851374e+01,1.349998592285088e+02,
614,5.333333333327859e-03,-9.999999999959347e-05,-7.650655785053117e-05,-6.799231010936546e-04,-7.002015051958217e+01,9.413851795170736e-01,5.156078052867907e-01,7.096902813488450e+01,
615,5.333333333329375e-03,4.517599402203976e-16,-5.415351914814720e-05,-6.823741190127130e-04,-6.070028129928456e+00,4.400471764012302e+00,-1.484532465280764e+01,3.148278933350802e+01,
616,5.333333333330890e-03,1.000000000004066e-04,-3.184116851365587e-05,-6.850011221842818e-04,5.830083282673790e+01,7.471876533773360e+00,-2.899593985999298e+01,7.711446629063458e+01,
617,5.333333333332404e-03,2.000000000003613e-04,-9.556101380744116e-06,-6.878058004704237e-04,1.230633345811189e+02,1.017235404819423e+01,-4.194877318331331e+01,1.406526635795620e+02,
618,5.333333333333920e-03,3.000000000002710e-04,1.271500305442562e-05,-6.907897285241891e-04,1.881895241632330e+02,1.251790315665877e+01,-5.371637719439123e+01,2.059182244062869e+02,
619,5.333333333335434e-03,4.000000000001356e-04,3.498538321256693e-05,-6.939543691442548e-04,2.536525707301305e+02,1.452377973936116e+01,-6.431130429225328e+01,2.715259731955495e+02,
620,5.466666666656394e-03,-3.999999999998712e-04,-1.487995662187147e-04,-7.035395969217732e-04,-2.522490618759274e+02,-1.197649614316526e+01,5.343755935768705e+01,2.629699542613753e+02,
621,5.466666666657916e-03,-2.999999999997425e-04,-1.258985207698936e-04,-7.055698170428971e-04,-1.914706458149397e+02,-7.194204735028146e+00,3.460327393684246e+01,1.968434733631541e+02,
622,5.466666666659441e-03,-1.999999999996565e-04,-1.030779205129731e-04,-7.077655143868413e-04,-1.301695410351434e+02,-2.863859795436633e+00,1.699309406974579e+01,1.317641736594540e+02,
623,5.466666666660964e-03,-9.999999999961374e-05,-8.032429754356901e-05,-7.101288185148729e-04,-6.837820011647865e+01,1.033487535257496e+00,5.956539933681606e-01,6.942191006722187e+01,
624,5.466666666662486e-03,4.291814299783869e-16,-5.762426684489301e-05,-7.126617330881229e-04,-6.127896269482749e+00,4.516017646510273e+00,-1.460050616401540e+01,3.108041223074231e+01,
625,5.466666666664011e-03,1.000000000003863e-04,-3.496452510196203e-05,-7.153661393080587e-04,5.655125404688991e+01,7.601153627384018e+00,-2.860692075476029e+01,7.529632123388400e+01,
626,5.466666666665532e-03,2.000000000003433e-04,-1.233184949055292e-05,-7.182437993039626e-04,1.196302690222966e+02,1.030557262608160e+01,-4.143517967420359e+01,1.371837661702678e+02,
627,5.466666666667055e-03,3.000000000002575e-04,1.028690355762957e-05,-7.212963594661177e-04,1.830812799013280e+02,1.264521736920275e+01,-5.309691009673686e+01,2.008122975784559e+02,
628,5.466666666668578e-03,4.000000000001288e-04,3.290479961262747e-05,-7.245253537235607e-04,2.468775099117399e+02,1.463530782719113e+01,-6.360375887291450e+01,2.647984006751850e+02,
629,5.599999999989473e-03,-3.999999999998780e-04,-1.537251525293635e-04,-7.339287886262410e-04,-2.455640066237026e+02,-1.199409912508703e+01,5.284246891970206e+01,2.563673297731802e+02,
630,5.599999999991005e-03,-2.999999999997559e-04,-1.304885004656897e-04,-7.360537853571246e-04,-1.864799020426060e+02,-7.167964250967879e+00,3.425176124525740e+01,1.919518263216080e+02,
631,5.599999999992536e-03,-1.999999999996747e-04,-1.073312889197482e-04,-7.383396241038221e-04,-1.268663239188288e+02,-2.802281202681727e+00,1.686185316943996e+01,1.285658394143054e+02,
632,5.599999999994066e-03,-9.999999999963413e-05,-8.424024547564839e-05,-7.407885027498564e-04,-6.675549050983869e+01,1.121734686860279e+00,6.623527035302716e-01,6.789015057295779e+01,
633,5.599999999995598e-03,4.065758146820642e-16,-6.120217585404891e-05,-7.434024930834988e-04,-6.178477162144562e+00,4.622124166271849e+00,-1.435724507561075e+01,3.067857450567068e+01,
634,5.599999999997128e-03,1.000000000003660e-04,-3.820396284859202e-05,-7.461835441507306e-04,5.483476280274076e+01,7.716194085175978e+00,-2.820753830244099e+01,7.350388007667742e+01,
635,5.599999999998660e-03,2.000000000003252e-04,-1.523256523458542e-05,-7.491334855586970e-04,1.162553776473161e+02,1.042052764035183e+01,-4.089919926456433e+01,1.337609564780650e+02,
636,5.600000000000190e-03,3.000000000002439e-04,7.724983348609040e-06,-7.522540307281911e-04,1.780555972294416e+02,1.275099482828030e+01,-5.244295599760631e+01,1.957719747820753e+02,
637,5.600000000001720e-03,4.000000000001220e-04,3.068157554054644e-05,-7.555467800939281e-04,2.402087134704309e+02,1.472276307927620e+01,-6.284957451933145e+01,2.581553599924787e+02,
638,5.733333333322551e-03,-3.999999999998848e-04,-1.587212135326712e-04,-7.647632682061952e-04,-2.389819748926851e+02,-1.199426489629171e+01,5.220274273701266e+01,2.498478054465832e+02,
639,5.733333333324091e-03,-2.999999999997696e-04,-1.351578727803292e-04,-7.669819384821904e-04,-1.815635595543750e+02,-7.132133038250985e+00,3.386604098643174e+01,1.871201685677647e+02,
640,5.733333333325632e-03,-1.999999999996926e-04,-1.116729379380226e-04,-7.693568926536860e-04,-1.236096272724841e+02,-2.738150854154773e+00,1.670706547377947e+01,1.254050156832946e+02,
641,5.733333333327172e-03,-9.999999999965446e-05,-8.825333150401454e-05,-7.718903920282600e-04,-6.515215058647527e+01,1.206287661299097e+00,7.163655267661140e-01,6.637390334277050e+01,
642,5.733333333328709e-03,3.840244094943657e-16,-6.488604949760040e-05,-7.745845717009365e-04,-6.221995040344359e+00,4.719068883565436e+00,-1.411563957286249e+01,3.027725221995758e+01,
643,5.733333333330251e-03,1.000000000003457e-04,-4.155816051020076e-05,-7.774414438195633e-04,5.315106158762756e+01,7.817368481714498e+00,-2.779864083175743e+01,7.173702990083515e+01,
644,5.733333333331789e-03,2.000000000003071e-04,-1.825680472651888e-05,-7.804629008040206e-04,1.129383104302394e+02,1.051766059973506e+01,-4.034242042732104e+01,1.303841748658237e+02,
645,5.733333333333329e-03,3.000000000002304e-04,5.030807082837372e-06,-7.836507185177200e-04,1.731120930805538e+02,1.283572728740829e+01,-5.175683321922388e+01,1.907972551463683e+02,
646,5.733333333334867e-03,4.000000000001152e-04,2.831739459632600e-05,-7.870065593899711e-04,2.336457835336653e+02,1.478666814543755e+01,-6.205178887728695e+01,2.515969204899041e+02,
647,5.866666666655632e-03,-3.999999999998914e-04,-1.637869877394287e-04,-7.960316212455243e-04,-2.325026136572230e+02,-1.197738162351160e+01,5.152128526952848e+01,2.434114814605482e+02,
648,5.866666666657180e-03,-2.999999999997832e-04,-1.399057438670768e-04,-7.983428014397418e-04,-1.767214459352827e+02,-7.086894065166346e+00,3.344825848917628e+01,1.823486363316441e+02,
649,5.866666666658728e-03,-1.999999999997108e-04,-1.161018434034218e-04,-8.008057840071360e-04,-1.203994335955174e+02,-2.671474051140611e+00,1.653012417317909e+01,1.222818567049310e+02,
650,5.866666666660276e-03,-9.999999999967481e-05,-9.236240314768178e-05,-8.034228889207392e-04,-6.356829341795002e+01,1.287292790650800e+00,7.583411410036938e-01,6.487331799442516e+01,
651,5.866666666661823e-03,3.613916891437308e-16,-6.867460893817716e-05,-8.061963098957827e-04,-6.258670524412874e+00,4.807125188407028e+00,-1.387577731784668e+01,2.987642246748657e+01,
652,5.866666666663370e-03,1.000000000003253e-04,-4.502571481086507e-05,-8.091281175675912e-04,5.149984396146666e+01,7.905054099989895e+00,-2.738104370545025e+01,6.999565644142088e+01,
653,5.866666666664919e-03,2.000000000002891e-04,-2.140304212599838e-05,-8.122202626265514e-04,1.096786955882864e+02,1.059743088861043e+01,-3.976637719422313e+01,1.270533590075452e+02,
654,5.866666666666466e-03,3.000000000002168e-04,2.206021335728616e-06,-8.154745789084770e-04,1.682503495835788e+02,1.289993576875723e+01,-5.104078510752231e+01,1.858881331607948e+02,
655,5.866666666668013e-03,4.000000000001084e-04,2.581402230658639e-05,-8.188927864388557e-04,2.271882742139310e+02,1.482758650946661e+01,-6.121334499437023e+01,2.451231447740343e+02,
656,5.999999999988711e-03,-3.999999999998983e-04,-1.689216353900377e-04,-8.277225859494324e-04,-2.261255246848482e+02,-1.194387674944192e+01,5.080091284106301e+01,2.370584512188238e+02,
657,5.999999999990266e-03,-2.999999999997966e-04,-1.447311420028550e-04,-8.301250557240443e-04,-1.719533531568615e+02,-7.032461651694062e+00,3.300049696569617e+01,1.776373599634685e+02,
658,5.999999999991822e-03,-1.999999999997289e-04,-1.206169036062505e-04,-8.326749224463718e-04,-1.172356999257393e+02,-2.602278928681931e+00,1.633238536166824e+01,1.191965119283980e+02,
659,5.999999999993378e-03,-9.999999999969511e-05,-9.656623065223717e-05,-8.353745601337477e-04,-6.200401725265253e+01,1.364882604391310e+00,7.889151631683111e-01,6.338854011278978e+01,
660,5.999999999994933e-03,3.388944940646565e-16,-7.256649828161062e-05,-8.382262165670194e-04,-6.288720474593218e+00,4.886562135153660e+00,-1.363773596269127e+01,2.947606334231289e+01,
661,5.999999999996490e-03,1.000000000003050e-04,-4.860514558300128e-05,-8.412320163812350e-04,4.988079583062050e+01,7.979633728478422e+00,-2.695553015066993e+01,6.827964417251081e+01,
662,5.999999999998043e-03,2.000000000002710e-04,-2.466967481834502e-05,-8.443939641165236e-04,1.064761419721602e+02,1.066031354148803e+01,-3.917255025832407e+01,1.237684440914553e+02,
663,5.999999999999600e-03,3.000000000002033e-04,-7.476506161489071e-07,-8.477139472273772e-04,1.634699175518690e+02,1.294416733667421e+01,-5.029698136584167e+01,1.810445989691781e+02,
664,6.000000000001156e-03,4.000000000001017e-04,2.317330086657563e-05,-8.511937390487025e-04,2.208356961712107e+02,1.484611827832769e+01,-6.033709284540787e+01,2.387340890879005e+02,
665,6.133333333321789e-03,-3.999999999999051e-04,-1.741242432859441e-04,-8.598250532120368e-04,-2.198502688261685e+02,-1.189421306409693e+01,5.004435498161281e+01,2.307888017002136e+02,
666,6.133333333323353e-03,-2.999999999998101e-04,-1.496330224512924e-04,-8.623175392615417e-04,-1.672590407457115e+02,-6.969078567998485e+00,3.252477831327893e+01,1.729864641879371e+02,
667,6.133333333324916e-03,-1.999999999997469e-04,-1.252169441873196e-04,-8.649530924182724e-04,-1.141183598996708e+02,-2.530614580723954e+00,1.611516835260369e+01,1.161491261676005e+02,
668,6.133333333326479e-03,-9.999999999971542e-05,-1.008635119194358e-04,-8.677341362579854e-04,-6.045940647715964e+01,1.439176688899597e+00,8.087100340747062e-01,6.191971128519903e+01,
669,6.133333333328044e-03,3.162617737140216e-16,-7.656028954108949e-05,-8.706629682025855e-04,-6.312357858469258e+00,4.957644303071607e+00,-1.340158364924758e+01,2.907615390577400e+01,
670,6.133333333329606e-03,1.000000000002847e-04,-5.229490076669937e-05,-8.737417625240313e-04,4.829359665285973e+01,8.041494529847597e+00,-2.652285209527453e+01,6.658887638632019e+01,
671,6.133333333331172e-03,2.000000000002529e-04,-2.805502844956552e-05,-8.769725733114419e-04,1.033302413369731e+02,1.070679714120324e+01,-3.856236810266756e+01,1.205293630176043e+02,
672,6.133333333332735e-03,3.000000000001898e-04,-3.828413866049132e-06,-8.803573373994834e-04,1.587703197970046e+02,1.296899203752379e+01,-4.952751943435040e+01,1.762666386520926e+02,
673,6.133333333334297e-03,4.000000000000949e-04,2.039714403305605e-05,-8.838978772563267e-04,2.145875209556713e+02,1.484289618278060e+01,-5.942579092357009e+01,2.324298036681836e+02,
674,6.266666666654870e-03,-3.999999999999119e-04,-1.793938294967282e-04,-8.923280666372426e-04,-2.136763700944649e+02,-1.182888496624143e+01,4.925425583392123e+01,2.246026137951244e+02,
675,6.266666666656441e-03,-2.999999999998237e-04,-1.546102721983546e-04,-8.949092463252322e-04,-1.626382388109381e+02,-6.897013274440838e+00,3.202306396996852e+01,1.683960683499140e+02,
676,6.266666666658012e-03,-1.999999999997650e-04,-1.299007229032808e-04,-8.976292383438674e-04,-1.110473257210211e+02,-2.456549263725916e+00,1.587975603783466e+01,1.131398397510038e+02,
677,6.266666666659586e-03,-9.999999999973577e-05,-1.052528773032307e-04,-9.004905114745248e-04,-5.893453254093957e+01,1.510282520783613e+00,8.183349285118613e-01,6.046696913246775e+01,
678,6.266666666661157e-03,2.936561584176989e-16,-8.065448746469960e-05,-9.034954084836744e-04,-6.329791641557279e+00,5.020631676220573e+00,-1.316737949499790e+01,2.867667415433526e+01,
679,6.266666666662729e-03,1.000000000002643e-04,-5.609336126944219e-05,-9.066461490405895e-04,4.673792057402978e+01,8.091026982581266e+00,-2.608373100500723e+01,6.492323526161529e+01,
680,6.266666666664303e-03,2.000000000002348e-04,-3.155736181869428e-05,-9.099448326011197e-04,1.002405704854802e+02,1.073738182900531e+01,-3.793720814731584e+01,1.173360465829985e+02,
681,6.266666666665874e-03,3.000000000001762e-04,-7.034406802388569e-06,-9.133934412555240e-04,1.541510542714968e+02,1.297499999806422e+01,-4.873442590643697e+01,1.715542344972434e+02,
682,6.266666666667446e-03,4.000000000000881e-04,1.748753216577551e-05,-9.169938425385612e-04,2.084431851327356e+02,1.481858177899651e+01,-5.848210788946491e+01,2.262103330899649e+02,
683,6.399999999987949e-03,-3.999999999999186e-04,-1.847293479441402e-04,-9.252208225166222e-04,-2.076033195485361e+02,-1.174841491481818e+01,4.843317561525058e+01,2.184999626311034e+02,
684,6.399999999989528e-03,-2.999999999998373e-04,-1.596617145619682e-04,-9.278893274076346e-04,-1.580906509198968e+02,-6.816557287491291e+00,3.149725581729462e+01,1.638662866497749e+02,
685,6.399999999991107e-03,-1.999999999997831e-04,-1.346669342630254e-04,-9.306924643878952e-04,-1.080224900493301e+02,-2.380168686311269e+00,1.562739528254450e+01,1.101687886664591e+02,
686,6.399999999992689e-03,-9.999999999975611e-05,-1.097328942739365e-04,-9.336327432224352e-04,-5.742945485023375e+01,1.578296268632339e+00,8.183856955688791e-01,5.903044733603912e+01,
687,6.399999999994268e-03,2.711047532300004e-16,-8.484753422818965e-05,-9.367125478518850e-04,-6.341226696262014e+00,5.075779542398341e+00,-1.293517406481331e+01,2.827760498701551e+01,
688,6.399999999995850e-03,1.000000000002440e-04,-5.999884568812475e-05,-9.399341392246827e-04,4.521343749084625e+01,8.128623884887400e+00,-2.563885872351093e+01,6.328260192790211e+01,
689,6.399999999997429e-03,2.000000000002168e-04,-3.517487162962240e-05,-9.432996580980876e-04,9.720669329861285e+01,1.075257743036015e+01,-3.729839791327370e+01,1.141884236608460e+02,
690,6.399999999999010e-03,3.000000000001627e-04,-1.036370589071207e-05,-9.468111278059350e-04,1.496115970486221e+02,1.296279868130747e+01,-4.791965797769030e+01,1.669073652599737e+02,
691,6.400000000000589e-03,4.000000000000813e-04,1.444650741513390e-05,-9.504704569912023e-04,2.024020941986797e+02,1.477386184857141e+01,-5.750862426726781e+01,2.200757165960874e+02,
692,6.533333333321028e-03,-3.999999999999253e-04,-1.901296928643856e-04,-9.584926697678912e-04,-2.016305789746389e+02,-1.165335006037054e+01,4.758359212672559e+01,2.124809178836411e+02,
693,6.533333333322615e-03,-2.999999999998508e-04,-1.647861136771143e-04,-9.612470890559606e-04,-1.536159568435697e+02,-6.728022683303807e+00,3.094919712474088e+01,1.593972283715588e+02,
694,6.533333333324202e-03,-1.999999999998011e-04,-1.395142140367485e-04,-9.641320341920905e-04,-1.050437277945722e+02,-2.301574372367335e+00,1.535929735657231e+01,1.072361046988482e+02,
695,6.533333333325791e-03,-9.999999999977643e-05,-1.143020719522805e-04,-9.671500518316027e-04,-5.594422162776307e+01,1.643303565515455e+00,8.094448207529474e-01,5.761027565945040e+01,
696,6.533333333327380e-03,2.484991379336776e-16,-8.913781399484264e-05,-9.703035630429476e-04,-6.346863729205152e+00,5.123338410700887e+00,-1.270500982911281e+01,2.787892817455000e+01,
697,6.533333333328969e-03,1.000000000002237e-04,-6.400961489543317e-05,-9.735948660552241e-04,4.371981405082929e+01,8.154679425904787e+00,-2.518889830709660e+01,6.166685651620343e+01,
698,6.533333333330558e-03,2.000000000001987e-04,-3.890569710450495e-05,-9.770261389771358e-04,9.422816264638840e+01,1.075290168461826e+01,-3.664721619559566e+01,1.110864213672515e+02,
699,6.533333333332144e-03,3.000000000001491e-04,-1.381433031453011e-05,-9.805994424852335e-04,1.451514051434395e+02,1.293301029262383e+01,-4.708510491838919e+01,1.623260064118781e+02,
700,6.533333333333733e-03,4.000000000000746e-04,1.127616905366931e-05,-9.843167224794483e-04,1.964636262952231e+02,1.470944499037419e+01,-5.650783418182696e+01,2.140259884160783e+02,
701,6.666666666654107e-03,-3.999999999999322e-04,-1.955937031500756e-04,-9.921331098373741e-04,-1.957575843839197e+02,-1.154425905564290e+01,4.670790230007185e+01,2.065455440758618e+02,
702,6.666666666655704e-03,-2.999999999998645e-04,-1.699821788579023e-04,-9.949719936728999e-04,-1.492138151582955e+02,-6.631739720326349e+00,3.038067352935763e+01,1.549889981017633e+02,
703,6.666666666657299e-03,-1.999999999998191e-04,-1.444411436393367e-04,-9.979373705756476e-04,-1.021108978328314e+02,-2.220882104078192e+00,1.507663839335260e+01,1.043419155625687e+02,
704,6.666666666658895e-03,-9.999999999979676e-05,-1.189588655151072e-04,-1.001031820124197e-03,-5.447887073578846e+01,1.705380255601606e+00,7.920814129074270e-01,5.620657996464656e+01,
705,6.666666666660489e-03,2.259206276916670e-16,-9.352365734435114e-05,-1.004257796590505e-03,-6.346899224011965e+00,5.163553945234037e+00,-1.247692160772137e+01,2.748062632805707e+01,
706,6.666666666662087e-03,1.000000000002033e-04,-6.812387649260291e-05,-1.007617631603657e-03,4.225671458790352e+01,8.169588316973051e+00,-2.473448485770794e+01,6.007587820510901e+01,
707,6.666666666663683e-03,2.000000000001806e-04,-4.274792446093889e-05,-1.011113536787552e-03,9.130452219765776e+01,1.073887858412500e+01,-3.598489424504629e+01,1.080299652234112e+02,
708,6.666666666665278e-03,3.000000000001356e-04,-1.738424647734404e-05,-1.014747606370333e-03,1.407699191717249e+02,1.288626932641128e+01,-4.623258956756483e+01,1.578101303790425e+02,
709,6.666666666666875e-03,4.000000000000678e-04,7.978668948929396e-06,-1.018521819763449e-03,1.906271357224076e+02,1.462605839565821e+01,-5.548214712699044e+01,2.080611780690008e+02,
710,6.799999999987186e-03,-3.999999999999390e-04,-2.011201665732334e-04,-1.026131796569733e-03,-1.899837493221936e+02,-1.142172903660975e+01,4.580842377862808e+01,2.006939008659674e+02,
711,6.799999999988791e-03,-2.999999999998779e-04,-1.752485688381871e-04,-1.029053659286327e-03,-1.448838657193262e+02,-6.528054589355135e+00,2.979341404640771e+01,1.506416959397197e+02,
712,6.799999999990397e-03,-1.999999999998372e-04,-1.494462543897689e-04,-1.032098055206169e-03,-9.922384463917493e+01,-2.138220438837818e+00,1.478055987723576e+01,1.014863450297984e+02,
713,6.799999999992000e-03,-9.999999999981711e-05,-1.237016804745714e-04,-1.035267592988130e-03,-5.303343047340099e+01,1.764593105993493e+00,7.668512116320860e-01,5.481948222421477e+01,
714,6.799999999993605e-03,2.033150123953442e-16,-9.800334557267297e-05,-1.038564756303337e-03,-6.341525397424057e+00,5.196666915686564e+00,-1.225093699962417e+01,2.708268286801303e+01,
715,6.799999999995209e-03,1.000000000001830e-04,-7.233978913063178e-05,-1.041991906416153e-03,4.082380199393279e+01,8.173744979607543e+00,-2.427622635015531e+01,5.850954525762945e+01,
716,6.799999999996816e-03,2.000000000001626e-04,-4.669959125511332e-05,-1.045551284741503e-03,8.843530811400321e+01,1.071103680789530e+01,-3.531261695328760e+01,1.050189793057613e+02,
717,6.799999999998418e-03,3.000000000001219e-04,-2.107137236814831e-05,-1.049245015376244e-03,1.364665658754251e+02,1.282322026370008e+01,-4.536386983821254e+01,1.533597067708909e+02,
718,6.800000000000023e-03,4.000000000000610e-04,4.556207175289728e-06,-1.053075107602465e-03,1.848919562651441e+02,1.452444480500367e+01,-5.443388976084401e+01,2.021813106573007e+02,
719,6.933333333320265e-03,-3.999999999999456e-04,-2.067078238908573e-04,-1.060478536048055e-03,-1.843084680009287e+02,-1.128636276830852e+01,4.488739652296054e+01,1.949260433230148e+02,
720,6.933333333321879e-03,-2.999999999998916e-04,-1.805838958923396e-04,-1.063481859291026e-03,-1.406257320048429e+02,-6.417327281455751e+00,2.918909210495183e+01,1.463554176996599e+02,
721,6.933333333323492e-03,-1.999999999998553e-04,-1.545280316482476e-04,-1.066603828244237e-03,-9.638239983861948e+01,-2.053729299679039e+00,1.447216915268681e+01,9.866951305028259e+01,
722,6.933333333325103e-03,-9.999999999983742e-05,-1.285288768326695e-04,-1.069847076925668e-03,-5.160792033622308e+01,1.821000493282551e+00,7.342966128246928e-01,5.344910052627642e+01,
723,6.933333333326715e-03,1.807636072076457e-16,-1.025751148648138e-04,-1.073214114719180e-03,-6.330930172133605e+00,5.222913160846254e+00,-1.202707679865300e+01,2.668508199436217e+01,
724,6.933333333328328e-03,1.000000000001627e-04,-7.665546670204245e-05,-1.076707328873819e-03,3.942073853624190e+01,8.167542793346168e+00,-2.381470444924967e+01,5.696773504506042e+01,
725,6.933333333329942e-03,2.000000000001445e-04,-5.075869059314663e-05,-1.080328986981744e-03,8.562005065085542e+01,1.066990825685101e+01,-3.463152403739525e+01,1.020533863891458e+02,
726,6.933333333331555e-03,3.000000000001084e-04,-2.487358179277484e-05,-1.084081239432425e-03,1.322407604851131e+02,1.274451539223295e+01,-4.448064023473690e+01,1.489747025976762e+02,
727,6.933333333333166e-03,4.000000000000542e-04,1.011027762293316e-06,-1.087966121840909e-03,1.792574043299629e+02,1.440535963538543e+01,-5.336530771801490e+01,1.963864071450380e+02,
728,7.066666666653344e-03,-3.999999999999524e-04,-2.123553728345243e-04,-1.095163286407260e-03,-1.787311182566081e+02,-1.113877595484453e+01,4.394698443689331e+01,1.892420221900455e+02,
729,7.066666666654963e-03,-2.999999999999051e-04,-1.859867298377632e-04,-1.098246522165423e-03,-1.364390233321424e+02,-6.299929568915711e+00,2.856932660344806e+01,1.421302551035911e+02,
730,7.066666666656584e-03,-1.999999999998733e-04,-1.596849188328280e-04,-1.101444587964596e-03,-9.358638368061402e+01,-1.967558636404652e+00,1.415253995463899e+01,9.589153586814666e+01,
731,7.066666666658206e-03,-9.999999999985773e-05,-1.334387731129748e-04,-1.104760139580191e-03,-5.020235174518353e+01,1.874653061727443e+00,6.949467139719525e-01,5.209554907475369e+01,
732,7.066666666659827e-03,1.580495716940744e-16,-1.072371603425521e-04,-1.108195708538195e-03,-6.315297158107160e+00,5.242523566396493e+00,-1.180535539572088e+01,2.628780865680650e+01,
733,7.066666666661447e-03,1.000000000001423e-04,-8.106898240533188e-05,-1.111753704533959e-03,3.804718661536251e+01,8.151373393097613e+00,-2.335047532211223e+01,5.545032406843838e+01,
734,7.066666666663068e-03,2.000000000001264e-04,-5.492317521282788e-05,-1.115436417831780e-03,8.285827565163375e+01,1.061602667633954e+01,-3.394271122310352e+01,9.913310808054185e+01,
735,7.066666666664691e-03,3.000000000000948e-04,-2.878870847342960e-05,-1.119246021642860e-03,1.280919089600126e+02,1.265081276931362e+01,-4.358453337301422e+01,1.446550824792678e+02,
736,7.066666666666310e-03,4.000000000000475e-04,-2.654585423008861e-06,-1.123184574479392e-03,1.737227819077857e+02,1.426956827824337e+01,-5.227856743620606e+01,1.906764846264904e+02,
737,7.199999999986423e-03,-3.999999999999593e-04,-2.180614719855827e-04,-1.130176157623645e-03,-1.732510643429636e+02,-1.097959470228025e+01,4.298927700758581e+01,1.836418841383604e+02,
738,7.199999999988054e-03,-2.999999999999185e-04,-1.914556019208826e-04,-1.133337731166134e-03,-1.323233369571434e+02,-6.176243101852529e+00,2.793568298409429e+01,1.379662959685692e+02,
739,7.199999999989682e-03,-1.999999999998915e-04,-1.649153213173286e-04,-1.136610390356772e-03,-9.083560644172320e+01,-1.879867160518804e+00,1.382271295511114e+01,9.315252613226978e+01,
740,7.199999999991309e-03,-9.999999999987807e-05,-1.384296502715001e-04,-1.139996809243950e-03,-4.881672874300168e+01,1.925594352032159e+00,6.493173738842701e-01,5.075893818125942e+01,
741,7.199999999992939e-03,1.355523766150002e-16,-1.119876399891225e-04,-1.143499538038917e-03,-6.294805651128062e+00,5.255724052453675e+00,-1.158578116656803e+01,2.589084852591228e+01,
742,7.199999999994565e-03,1.000000000001220e-04,-8.557837268420862e-05,-1.147121005455273e-03,3.670280947224460e+01,8.125626021115707e+00,-2.288407043784010e+01,5.395718796616058e+01,
743,7.199999999996196e-03,2.000000000001084e-04,-5.919096143804052e-05,-1.150863521031323e-03,8.014950595743194e+01,1.054992637445026e+01,-3.324723142206470e+01,9.625806494552600e+01,
744,7.199999999997824e-03,3.000000000000813e-04,-3.281455001875406e-05,-1.154729277432805e-03,1.240194100840489e+02,1.254277430220546e+01,-4.267712150170000e+01,1.404008088435435e+02,
745,7.199999999999455e-03,4.000000000000406e-04,-6.438312662118383e-06,-1.158720352733714e-03,1.682873793604214e+02,1.411784355567017e+01,-5.117575799009782e+01,1.850515565827446e+02,
746,7.333333333319502e-03,-3.999999999999660e-04,-2.238247445375268e-04,-1.165507411283221e-03,-1.678676595602158e+02,-1.080945313281862e+01,4.201629095483231e+01,1.781256720088247e+02,
747,7.333333333321141e-03,-2.999999999999322e-04,-1.969890085882304e-04,-1.168745724002999e-03,-1.282782600567575e+02,-6.046657612898072e+00,2.728967431791186e+01,1.338636243850603e+02,
748,7.333333333322777e-03,-1.999999999999096e-04,-1.702176102123127e-04,-1.172091448707813e-03,-8.812986974645300e+01,-1.790821140887190e+00,1.348369632481831e+01,9.045259300005682e+01,
749,7.333333333324413e-03,-9.999999999989842e-05,-1.434997554885784e-04,-1.175547274349523e-03,-4.745104866326697e+01,1.973861401063452e+00,5.979112886132016e-01,4.943937425274874e+01,
750,7.333333333326051e-03,1.129196562643653e-16,-1.168246784528819e-04,-1.179115766479419e-03,-6.269630634821149e+00,5.262735575593307e+00,-1.136835684643878e+01,2.549418796437720e+01,
751,7.333333333327688e-03,1.000000000001017e-04,-9.018164104379445e-05,-1.182799369509713e-03,3.538727184501102e+01,8.090686926584581e+00,-2.241599735562269e+01,5.248820151232083e+01,
752,7.333333333329325e-03,2.000000000000902e-04,-6.355993300810562e-05,-1.186600408959823e-03,7.749326271717563e+01,1.047214101904787e+01,-3.254609590199304e+01,9.342817662526741e+01,
753,7.333333333330964e-03,3.000000000000677e-04,-3.694887176680175e-05,-1.190521093684946e-03,1.200226574354737e+02,1.242106395327381e+01,-4.175991802136696e+01,1.362118421155582e+02,
754,7.333333333332599e-03,4.000000000000339e-04,-1.033780224209838e-05,-1.194563518084578e-03,1.629504780447432e+02,1.395096333592871e+01,-5.005889292713726e+01,1.795116331267269e+02,
755,7.466666666652581e-03,-3.999999999999728e-04,-2.296437819471137e-04,-1.201147460331395e-03,-1.625802487299224e+02,-1.062899114430977e+01,4.102997188480676e+01,1.726934250436922e+02,
756,7.466666666654226e-03,-2.999999999999458e-04,-2.025854151443908e-04,-1.204460892497178e-03,-1.243033715920758e+02,-5.911569224177387e+00,2.663276240013578e+01,1.298223208857701e+02,
757,7.466666666655873e-03,-1.999999999999276e-04,-1.755901260309836e-04,-1.207878133169724e-03,-8.546896782241114e+01,-1.700593270582771e+00,1.313646630738256e+01,8.779184223625450e+01,
758,7.466666666657516e-03,-9.999999999991870e-05,-1.486473058437361e-04,-1.211401882947520e-03,-4.610530276326588e+01,2.019485317794024e+00,5.412180799089792e-01,4.813695976987960e+01,
759,7.466666666659163e-03,9.036825107666679e-17,-1.217463707320210e-04,-1.215034719486248e-03,-6.239942798712331e+00,5.263774137245688e+00,-1.115307989073986e+01,2.509781399922214e+01,
760,7.466666666660807e-03,1.000000000000813e-04,-9.487676174592294e-05,-1.218779099683589e-03,3.410024057037001e+01,8.046938808202338e+00,-2.194674050299335e+01,5.104323860741484e+01,
761,7.466666666662451e-03,2.000000000000722e-04,-6.802794478429941e-05,-1.222637361850663e-03,7.488906661764823e+01,1.038320252174646e+01,-3.184027544633649e+01,9.064336194533642e+01,
762,7.466666666664097e-03,3.000000000000542e-04,-4.118941050330806e-05,-1.226611727867578e-03,1.161010412355351e+02,1.228634606144758e+01,-4.083437899594325e+01,1.320881408985153e+02,
763,7.466666666665745e-03,4.000000000000271e-04,-1.435067418593978e-05,-1.230704305320662e-03,1.577113527728696e+02,1.376970829610645e+01,-4.892991210179285e+01,1.740567212371633e+02,
764,7.599999999985659e-03,-3.999999999999795e-04,-2.355171474758794e-04,-1.237086868806381e-03,-1.573881705174406e+02,-1.043885230907032e+01,4.003219594515292e+01,1.673451791079425e+02,
765,7.599999999987315e-03,-2.999999999999593e-04,-2.082432592985020e-04,-1.240473782224658e-03,-1.203982440680941e+02,-5.771378857764725e+00,2.596635885103603e+01,1.258424626104803e+02,
766,7.599999999988968e-03,-1.999999999999457e-04,-1.810311822418303e-04,-1.243960970313958e-03,-8.285268868649581e+01,-1.609361597067735e+00,1.278196780244842e+01,8.517037630638430e+01,
767,7.599999999990621e-03,-9.999999999993905e-05,-1.538704918754624e-04,-1.247551142172963e-03,-4.477947683115475e+01,2.062491828484768e+00,4.797143962621671e-01,4.685179325830097e+01,
768,7.599999999992276e-03,6.770842567171975e-17,-1.267507857423630e-04,-1.251246884433562e-03,-6.205908560232098e+00,5.259050803491997e+00,-1.093994282306569e+01,2.470171429475352e+01,
769,7.599999999993928e-03,1.000000000000610e-04,-9.966168338572180e-05,-1.255050663370343e-03,3.284138514938085e+01,7.994760307733665e+00,-2.147676193871221e+01,4.962217225706699e+01,
770,7.599999999995582e-03,2.000000000000541e-04,-7.259282633584313e-05,-1.258964826998457e-03,7.233643902449785e+01,1.028363999702917e+01,-3.113070150383360e+01,8.790353901650700e+01,
771,7.599999999997235e-03,3.000000000000406e-04,-4.553387805758045e-05,-1.262991607157289e-03,1.122539500721954e+02,1.213928377429798e+01,-3.990190465610689e+01,1.280296621438936e+02,
772,7.599999999998888e-03,4.000000000000203e-04,-1.847452385880148e-05,-1.267133121577502e-03,1.525692741189415e+02,1.357485982887733e+01,-4.779068350330071e+01,1.686868249825357e+02,
773,7.733333333318738e-03,-3.999999999999864e-04,-2.414433796236741e-04,-1.273316351558619e-03,-1.522907596094602e+02,-1.023968190610433e+01,3.902477147501404e+01,1.620809669004758e+02,
774,7.733333333320401e-03,-2.999999999999729e-04,-2.139609546010956e-04,-1.276775092147482e-03,-1.165624451857934e+02,-5.626490745262121e+00,2.529182621977919e+01,1.219241234611005e+02,
775,7.733333333322063e-03,-1.999999999999637e-04,-1.865390687098714e-04,-1.280330642675277e-03,-8.028081525888689e+01,-1.517308510888928e+00,1.242111495714273e+01,8.258829446329629e+01,
776,7.733333333323725e-03,-9.999999999995939e-05,-1.591674810278817e-04,-1.283985717702593e-03,-4.347355176244440e+01,2.102901796955405e+00,4.138640253497194e-01,4.558396925211802e+01,
777,7.733333333325385e-03,4.515702048402126e-17,-1.318359697703184e-04,-1.287742909814733e-03,-6.167690095485703e+00,5.248771732844062e+00,-1.072893356993821e+01,2.430587712612525e+01,
778,7.733333333327048e-03,1.000000000000407e-04,-1.045343323516097e-04,-1.291604691657292e-03,3.161037825895157e+01,7.934525538833832e+00,-2.100650210314549e+01,4.822487454066138e+01,
779,7.733333333328710e-03,2.000000000000360e-04,-7.725238540760195e-05,-1.295573417961734e-03,6.983490305160004e+01,1.017397879980186e+01,-3.041826732200644e+01,8.520862532672956e+01,
780,7.733333333330370e-03,3.000000000000271e-04,-4.997996477843448e-05,-1.299651327558412e-03,1.084807725153111e+02,1.198053758869059e+01,-3.896384088946078e+01,1.240363613152604e+02,
781,7.733333333332032e-03,4.000000000000135e-04,-2.270692545257144e-05,-1.303840545374528e-03,1.475235105786560e+02,1.336719809156826e+01,-4.664300507440356e+01,1.634019457338757e+02,
782,7.866666666651818e-03,-3.999999999999932e-04,-2.474209954558888e-04,-1.309826773958349e-03,-1.472873487536924e+02,-1.003212508696486e+01,3.800944064991472e+01,1.569008181555500e+02,
783,7.866666666653491e-03,-2.999999999999864e-04,-2.197368937729901e-04,-1.313355674234826e-03,-1.127955393904859e+02,-5.477311029734319e+00,2.461047908886614e+01,1.180673742505714e+02,
784,7.866666666655159e-03,-1.999999999999818e-04,-1.921120550283602e-04,-1.316977988287098e-03,-7.775312641657389e+01,-1.424619798525838e+00,1.205479176315640e+01,8.004569282824441e+01,
785,7.866666666656832e-03,-9.999999999997969e-05,-1.645364209862499e-04,-1.320696433205279e-03,-4.218750410560352e+01,2.140731719839573e+00,3.441180153066861e-01,4.433357824753075e+01,
786,7.866666666658501e-03,2.255140518769849e-17,-1.369999498130561e-04,-1.324513604608600e-03,-6.125445380239761e+00,5.233138208943688e+00,-1.052003578248014e+01,2.391029135353892e+01,
787,7.866666666660169e-03,1.000000000000204e-04,-1.094926161709059e-04,-1.328431978608488e-03,3.040689622939843e+01,7.866603660662249e+00,-2.053638055382475e+01,4.685121657001308e+01,
788,7.866666666661838e-03,2.000000000000180e-04,-8.200441127175664e-05,-1.332453913763211e-03,6.738398454330992e+01,1.005473963104392e+01,-2.970382906829582e+01,8.255853782307872e+01,
789,7.866666666663507e-03,3.000000000000135e-04,-5.452534289247377e-05,-1.336581653021466e-03,1.047808986190052e+02,1.181076399541274e+01,-3.802148071701170e+01,1.201081925414969e+02,
790,7.866666666665179e-03,4.000000000000067e-04,-2.704543535119561e-05,-1.340817325652419e-03,1.425733305853863e+02,1.314750018524889e+01,-4.548860651577429e+01,1.582020823685735e+02,
791,7.999999999984899e-03,-3.999999999999999e-04,-2.534484938260473e-04,-1.346609151593347e-03,-1.423772706639970e+02,-9.816825163470657e+00,3.698788111563717e+01,1.518047598364295e+02,
792,7.999999999986577e-03,-3.000000000000000e-04,-2.255694519280779e-04,-1.350206533075943e-03,-1.090970893214764e+02,-5.324246459047290e+00,2.392358517621756e+01,1.142722828444648e+02,
793,7.999999999988253e-03,-1.999999999999999e-04,-1.977483937428425e-04,-1.353894000210355e-03,-7.526939798022875e+01,-1.331483749673973e+00,1.168385265772889e+01,7.754266446592447e+01,
794,7.999999999989932e-03,-1.000000000000000e-04,-1.699754429032764e-04,-1.357674269787517e-03,-4.092130658466441e+01,2.175994193234249e+00,2.709148060872462e-01,4.310070664930325e+01,
795,7.999999999991611e-03,-2.710505431213761e-20,-1.422407368079744e-04,-1.361549937642335e-03,-6.079328232059385e+00,5.212346683238095e+00,-1.031322914595271e+01,2.351494639714223e+01,
796,7.999999999993287e-03,1.000000000000000e-04,-1.145344267431915e-04,-1.365523480545716e-03,2.923061947588528e+01,7.791358486615229e+00,-2.006679668603677e+01,4.550106843493878e+01,
797,7.999999999994966e-03,1.999999999999999e-04,-8.684667796573535e-05,-1.369597258089637e-03,6.498321299396071e+01,9.926437714583264e+00,-2.898820693334412e+01,7.995319298818144e+01,
798,7.999999999996645e-03,3.000000000000000e-04,-5.916766974711639e-05,-1.373773514562581e-03,1.011537213157954e+02,1.163061421828212e+01,-3.707606575247122e+01,1.162451087621286e+02,
799,7.999999999998324e-03,4.000000000000000e-04,-3.148759537925225e-05,-1.378054380812819e-03,1.377180043874004e+02,1.291653846235441e+01,-4.432915107568213e+01,1.530872314642963e+02,
800,8.133333333318303e-03,-4.000000000000067e-04,-2.595243584954572e-04,-1.383654649958825e-03,-1.375598597896953e+02,-9.594422013572100e+00,3.596170760973330e+01,1.467928163162852e+02,
801,8.133333333319951e-03,-3.000000000000135e-04,-2.314569896917298e-04,-1.387318825486945e-03,-1.054666571700414e+02,-5.167703169060780e+00,2.323236643179497e+01,1.105389142961681e+02,
802,8.133333333321602e-03,-2.000000000000179e-04,-2.034463234694312e-04,-1.391069826057836e-03,-7.282940364445331e+01,-1.238090325507075e+00,1.130912312733993e+01,7.507929945310404e+01,
803,8.133333333323254e-03,-1.000000000000204e-04,-1.754826645182471e-04,-1.394910365436003e-03,-3.967492858636236e+01,2.208698358511828e+00,1.946803686455927e-01,4.188543670347886e+01,
804,8.133333333324902e-03,-2.263272035063491e-17,-1.475563287535160e-04,-1.398843036952939e-03,-6.029488360303405e+00,5.186588820892911e+00,-1.010848967642409e+01,2.311983221150279e+01,
805,8.133333333326553e-03,9.999999999997969e-05,-1.196576434636061e-04,-1.402870315329586e-03,2.808123289528430e+01,7.709148129218132e+00,-1.959813043850096e+01,4.417429913936130e+01,
806,8.133333333328205e-03,1.999999999999818e-04,-9.177694741861873e-05,-1.406994558493185e-03,6.263212239090407e+01,9.789582039447239e+00,-2.827218621774658e+01,7.739250690421586e+01,
807,8.133333333329853e-03,2.999999999999864e-04,-6.390459094068945e-05,-1.411218009385857e-03,9.759863771374606e+01,1.144073305142888e+01,-3.612878764357787e+01,1.124470618654837e+02,
808,8.133333333331504e-03,3.999999999999933e-04,-3.603093593615846e-05,-1.415542797762360e-03,1.329568057966974e+02,1.267507895979220e+01,-4.316623731850537e+01,1.480573874814019e+02,
809,8.266666666651705e-03,-4.000000000000135e-04,-2.656470611515529e-04,-1.420954584140846e-03,-1.328344539725589e+02,-9.365550608868501e+00,3.493247356691757e+01,1.418650095543150e+02,
810,8.266666666653325e-03,-3.000000000000271e-04,-2.373978562166070e-04,-1.424683860112830e-03,-1.019038059418646e+02,-5.008085550034780e+00,2.253800013032549e+01,1.068673309751389e+02,
811,8.266666666654951e-03,-2.000000000000361e-04,-2.092040719091425e-04,-1.428496767515422e-03,-7.043291584285110e+01,-1.144630374537819e+00,1.093140031230351e+01,7.265568494130237e+01,
812,8.266666666656571e-03,-1.000000000000407e-04,-1.810561931708569e-04,-1.432396014458715e-03,-3.844833662904541e+01,2.238850319897858e+00,1.158283506308377e-01,4.068784642427637e+01,
813,8.266666666658189e-03,-4.517057301117733e-17,-1.529447137233849e-04,-1.436384189148824e-03,-5.976071422566163e+00,5.156051552009104e+00,-9.905790007448253e+00,2.272493926521506e+01,
814,8.266666666659813e-03,9.999999999995936e-05,-1.248601362381895e-04,-1.440463761642260e-03,2.695842622890416e+01,7.620324682210643e+00,-1.913074298203687e+01,4.287077652211635e+01,
815,8.266666666661437e-03,1.999999999999637e-04,-9.679297246828135e-05,-1.444637085595960e-03,6.033025199246909e+01,9.644674662011315e+00,-2.755651839875257e+01,7.487639530830104e+01,
816,8.266666666663059e-03,2.999999999999729e-04,-6.873374334190221e-05,-1.448906400010329e-03,9.411505029685141e+01,1.124175778791575e+01,-3.518078949223267e+01,1.087140028168348e+02,
817,8.266666666664681e-03,3.999999999999865e-04,-4.067297901847497e-05,-1.453273830962680e-03,1.282890138053052e+02,1.242387994496421e+01,-4.200140087552661e+01,1.431125429391200e+02,
818,8.399999999985112e-03,-4.000000000000203e-04,-2.718150643267808e-04,-1.458500418495808e-03,-1.282003959718726e+02,-9.130839644884354e+00,3.390167270964938e+01,1.370213592618120e+02,
819,8.399999999986705e-03,-3.000000000000406e-04,-2.433903920977548e-04,-1.462293097027183e-03,-9.840810063456269e+01,-4.845795194430354e+00,2.184161995218493e+01,1.032575926884573e+02,
820,8.399999999988301e-03,-2.000000000000541e-04,-2.150198587602864e-04,-1.466166279862595e-03,-6.807970656283926e+01,-1.051294908463754e+00,1.055145361062660e+01,7.027190521180738e+01,
821,8.399999999989893e-03,-1.000000000000610e-04,-1.866941287118521e-04,-1.470122666926811e-03,-3.724149479865450e+01,2.266453540723144e+00,3.476022814709623e-02,3.950800950542530e+01,
822,8.399999999991489e-03,-6.777618830750010e-17,-1.584038727762807e-04,-1.474164838773685e-03,-5.919219080296692e+00,5.120917129990207e+00,-9.705099661549060e+00,2.233025851404517e+01,
823,8.399999999993081e-03,9.999999999993903e-05,-1.301397683934830e-04,-1.478295258273909e-03,2.586189438469821e+01,7.525233928899233e+00,-1.866497739415542e+01,4.159036716799449e+01,
824,8.399999999994677e-03,1.999999999999457e-04,-1.018924997715125e-04,-1.482516272299659e-03,5.807714704464200e+01,9.492210071552059e+00,-2.684192218085630e+01,7.240477364187878e+01,
825,8.399999999996273e-03,2.999999999999593e-04,-7.365275800107339e-05,-1.486830113403394e-03,9.070236802917793e+01,1.103431723061402e+01,-3.423316725416492e+01,1.050458817805300e+02,
826,8.399999999997866e-03,3.999999999999797e-04,-4.541124113267549e-05,-1.491238901488254e-03,1.237139140911222e+02,1.216369058129173e+01,-4.083611616930614e+01,1.382526885824120e+02,
827,8.533333333318516e-03,-4.000000000000271e-04,-2.780268242196035e-04,-1.496283766326660e-03,-1.236570348834761e+02,-8.890910284144431e+00,3.287074061522522e+01,1.322618830575272e+02,
828,8.533333333320080e-03,-3.000000000000542e-04,-2.494329321886888e-04,-1.500138147330343e-03,-9.497910932698832e+01,-4.681229922190821e+00,2.114431705789904e+01,9.970975679632959e+01,
829,8.533333333321643e-03,-2.000000000000721e-04,-2.208918985306655e-04,-1.504069971493052e-03,-6.576954809768105e+01,-9.582744207850444e-01,1.017002528150606e+01,6.792804172451464e+01,
830,8.533333333323213e-03,-1.000000000000814e-04,-1.923945663123093e-04,-1.508081928118244e-03,-3.605436516112867e+01,2.291509216182146e+00,-4.813453576790883e-02,3.834599522107409e+01,
831,8.533333333324778e-03,-9.036825107666679e-17,-1.639317827631347e-04,-1.512176587673662e-03,-5.859069064590093e+00,5.081363188672086e+00,-9.506385313722326e+00,2.193578138157019e+01,
832,8.533333333326346e-03,9.999999999991870e-05,-1.354943994824541e-04,-1.516356403413998e-03,2.479133773292161e+01,7.424215086752060e+00,-1.820115931648256e+01,4.033293630351025e+01,
833,8.533333333327909e-03,1.999999999999276e-04,-1.070732726093072e-04,-1.520623713001524e-03,5.587235943496343e+01,9.332674610256550e+00,-2.612908452170573e+01,6.997755708334508e+01,
834,8.533333333329479e-03,2.999999999999457e-04,-7.865926295534086e-05,-1.524980740122034e-03,8.736000737586225e+01,1.081903079043605e+01,-3.328697111432845e+01,1.014426482329563e+02,
835,8.533333333331044e-03,3.999999999999729e-04,-5.024323610076967e-05,-1.529429596093418e-03,1.192308003936913e+02,1.189524969405927e+01,-3.967179811557111e+01,1.334778135379952e+02,
836,8.666666666651921e-03,-4.000000000000339e-04,-2.842807934193853e-04,-1.534296389557810e-03,-1.192037274461711e+02,-8.646374996813091e+00,3.184105626571813e+01,1.275865966200137e+02,
837,8.666666666653458e-03,-3.000000000000677e-04,-2.555238083202940e-04,-1.538210772747878e-03,-9.161640418970200e+01,-4.514782883040882e+00,2.044714115051551e+01,9.622387832116009e+01,
838,8.666666666654995e-03,-2.000000000000904e-04,-2.268184032515556e-04,-1.542199603437257e-03,-6.350221375456525e+01,-8.657582620989390e-01,9.787831044005705e+00,6.562417315931472e+01,
839,8.666666666656535e-03,-1.000000000001017e-04,-1.981555991736152e-04,-1.546265557964865e-03,-3.488690815182382e+01,2.314016621900803e+00,-1.324783286834170e-01,3.720186831397855e+01,
840,8.666666666658072e-03,-1.130009714273017e-16,-1.695264190339202e-04,-1.550411194369538e-03,-5.795755239715412e+00,5.037562806780107e+00,-9.309611041913909e+00,2.154149973663456e+01,
841,8.666666666659609e-03,9.999999999989837e-05,-1.409218879889230e-04,-1.554638953949069e-03,2.374646237005307e+01,7.317600576959665e+00,-1.773959759455458e+01,3.909834767715219e+01,
842,8.666666666661150e-03,1.999999999999095e-04,-1.123330335895584e-04,-1.558951162818277e-03,5.371544828974250e+01,9.166545948335298e+00,-2.541866164260628e+01,6.759466057781081e+01,
843,8.666666666662687e-03,2.999999999999322e-04,-8.375088593019204e-05,-1.563350033463391e-03,8.408739323141852e+01,1.059650765858969e+01,-3.234320684014993e+01,9.790425106754816e+01,
844,8.666666666664227e-03,3.999999999999661e-04,-5.516647776117135e-05,-1.567837666290126e-03,1.148389757904476e+02,1.161928464616701e+01,-3.850980379556732e+01,1.287879054624813e+02,
845,8.799999999985321e-03,-4.000000000000406e-04,-2.905754235369009e-04,-1.572530198409937e-03,-1.148398392390159e+02,-8.397836499487294e+00,3.081394357401552e+01,1.229955138268557e+02,
846,8.799999999986832e-03,-3.000000000000813e-04,-2.616613519243747e-04,-1.576502885230635e-03,-8.831956241932150e+01,-4.346841730610204e+00,1.975110152328879e+01,9.280001005063181e+01,
847,8.799999999988341e-03,-2.000000000001083e-04,-2.327975850952937e-04,-1.580547088888142e-03,-6.127747850392711e+01,-7.739340564917616e-01,9.405560675034806e+00,6.336037544988059e+01,
848,8.799999999989854e-03,-1.000000000001220e-04,-2.039753211400597e-04,-1.584665470504272e-03,-3.373908294108664e+01,2.333973440006688e+00,-2.179052232066991e-01,3.607568886963547e+01,
849,8.799999999991363e-03,-1.355252715606881e-16,-1.751857580460940e-04,-1.588860573435179e-03,-5.729407670599763e+00,4.989684574520108e+00,-9.114738568000908e+00,2.114740587427692e+01,
850,8.799999999992871e-03,9.999999999987805e-05,-1.464200939325823e-04,-1.593134824768293e-03,2.272698035387069e+01,7.205715825288170e+00,-1.728058490360376e+01,3.788646342704564e+01,
851,8.799999999994383e-03,1.999999999998915e-04,-1.176695272493204e-04,-1.597490536819224e-03,5.160598051216517e+01,8.994292606923544e+00,-2.471128001369993e+01,6.525599884911469e+01,
852,8.799999999995894e-03,2.999999999999187e-04,-8.892525693958105e-05,-1.601929908625962e-03,8.088395977649297e+01,1.036734605850690e+01,-3.140283710783807e+01,9.443063869283799e+01,
853,8.799999999997404e-03,3.999999999999593e-04,-6.017848256711538e-05,-1.606455027437707e-03,1.105377538626568e+02,1.133651031008379e+01,-3.735143410516599e+01,1.241829506865864e+02,
854,8.933333333318727e-03,-4.000000000000474e-04,-2.969091677421653e-04,-1.610977251076024e-03,-1.105647457860504e+02,-8.145886788840436e+00,2.979067288518307e+01,1.184886468911613e+02,
855,8.933333333320212e-03,-3.000000000000948e-04,-2.678438965636185e-04,-1.615006546557636e-03,-8.508816709138280e+01,-4.177787864035230e+00,1.905716809767513e+01,8.943820263358039e+01,
856,8.933333333321688e-03,-2.000000000001264e-04,-2.388276588983944e-04,-1.619104492731286e-03,-5.909511958197846e+01,-6.829871647296959e-01,9.023878601422771e+00,6.113672180926179e+01,
857,8.933333333323175e-03,-1.000000000001423e-04,-2.098518292160004e-04,-1.623273733337658e-03,-3.261084776935963e+01,2.351376068768645e+00,-3.040608045353193e-01,3.496751217342756e+01,
858,8.933333333324656e-03,-1.581444393841669e-16,-1.809077798766551e-04,-1.627516794883515e-03,-5.660152689951367e+00,4.937892662625058e+00,-8.921727487139808e+00,2.075349249438298e+01,
859,8.933333333326137e-03,9.999999999985774e-05,-1.519868813767147e-04,-1.631836088078007e-03,2.173260990869294e+01,7.088879083156545e+00,-1.682439835737281e+01,3.669714393302347e+01,
860,8.933333333327622e-03,1.999999999998734e-04,-1.230805025588522e-04,-1.636233909269845e-03,4.954353127578690e+01,8.816373537048653e+00,-2.400753732088030e+01,6.296148640502310e+01,
861,8.933333333329104e-03,2.999999999999051e-04,-9.418001078682956e-05,-1.640712441882656e-03,7.774915125024199e+01,1.013213256695011e+01,-3.046678280509524e+01,9.102175912158603e+01,
862,8.933333333330585e-03,3.999999999999526e-04,-6.527677208498074e-05,-1.645273757845862e-03,1.063264597564993e+02,1.104762813239743e+01,-3.619793537066482e+01,1.196629343449727e+02,
863,9.066666666652134e-03,-4.000000000000541e-04,-3.032804832113167e-04,-1.649629753399748e-03,-1.063778335561056e+02,-7.891106263278261e+00,2.877246245537845e+01,1.140660064867548e+02,
864,9.066666666653589e-03,-3.000000000001084e-04,-2.740697803697673e-04,-1.653713967942951e-03,-8.192180794771953e+01,-4.007995737355552e+00,1.836627244491184e+01,8.613850467261882e+01,
865,9.066666666655043e-03,-2.000000000001445e-04,-2.449068445920216e-04,-1.657864031080632e-03,-5.695491704916809e+01,-5.931001943505043e-01,8.643424485900812e+00,5.895328274617011e+01,
866,9.066666666656497e-03,-1.000000000001627e-04,-2.157832259895511e-04,-1.662082567094777e-03,-3.150216026685126e+01,2.366219905920241e+00,-3.906019994331646e-01,3.387738855365370e+01,
867,9.066666666657947e-03,-1.806822920447093e-16,-1.866904706398662e-04,-1.666372083561136e-03,-5.588112977852044e+00,4.882346886864129e+00,-8.730535486949494e+00,2.035975268352172e+01,
868,9.066666666659406e-03,9.999999999983742e-05,-1.576201208406896e-04,-1.670734972726371e-03,2.076307560769336e+01,6.967401276356881e+00,-1.637130009906117e+01,3.553024764887486e+01,
869,9.066666666660858e-03,1.999999999998553e-04,-1.285637153295544e-04,-1.675173512886905e-03,4.752768446261973e+01,8.633237738243087e+00,-2.330800340874822e+01,6.071103752699543e+01,
870,9.066666666662313e-03,2.999999999998914e-04,-9.951278946862400e-05,-1.679689869766812e-03,7.468242265337754e+01,9.891441504431892e+00,-2.953592430765280e+01,8.767756005428420e+01,
871,9.066666666663769e-03,3.999999999999458e-04,-7.045887539479834e-05,-1.684286097892003e-03,1.022044311510471e+02,1.075332529069770e+01,-3.505050093814367e+01,1.152278405036738e+02,
872,9.199999999985539e-03,-4.000000000000610e-04,-3.096878334842871e-04,-1.688480058557322e-03,-1.022785008760766e+02,-7.634062928771007e+00,2.776047990340568e+01,1.097276018704088e+02,
873,9.199999999986965e-03,-3.000000000001219e-04,-2.803373483918322e-04,-1.692617509647649e-03,-7.882008211228143e+01,-3.837832233137702e+00,1.767930879200136e+01,8.290096280737694e+01,
874,9.199999999988388e-03,-2.000000000001626e-04,-2.510333695417066e-04,-1.696818070820859e-03,-5.485665429775183e+01,-5.044525456287561e-01,8.264813809118495e+00,5.681012607362418e+01,
875,9.199999999989814e-03,-1.000000000001830e-04,-2.217676219647202e-04,-1.701084344907093e-03,-3.041297775162939e+01,2.378499611656285e+00,-4.771968992975710e-01,3.280536320770850e+01,
876,9.199999999991243e-03,-2.032879073410321e-16,-1.925318248126441e-04,-1.705418818552596e-03,-5.513407624417052e+00,4.823202785926819e+00,-8.541118558401150e+00,1.996617989726346e+01,
877,9.199999999992669e-03,9.999999999981709e-05,-1.633176916193314e-04,-1.709823863539181e-03,1.981810853043399e+01,6.841585877237115e+00,-1.592153787749455e+01,3.438563091913404e+01,
878,9.199999999994095e-03,1.999999999998373e-04,-1.341169305279869e-04,-1.714301738106191e-03,4.555803305296808e+01,8.445323923330610e+00,-2.261322120424938e+01,5.850456624803171e+01,
879,9.199999999995521e-03,2.999999999998779e-04,-1.049212444842564e-04,-1.718854588272227e-03,7.168324037863252e+01,9.645834389674846e+00,-2.861110272684868e+01,8.439798895011607e+01,
880,9.199999999996948e-03,3.999999999999391e-04,-7.572233139523846e-05,-1.723484449153962e-03,9.817101913385886e+01,1.045427393740647e+01,-3.391027273043593e+01,1.108776522770461e+02,
881,9.333333333318946e-03,-4.000000000000677e-04,-3.161296907349623e-04,-1.727520666743798e-03,-9.826615875286222e+01,-7.375311689383844e+00,2.675584363763687e+01,1.054734409932818e+02,
882,9.333333333320339e-03,-3.000000000001356e-04,-2.866449548560852e-04,-1.731709680597788e-03,-7.578259473848780e+01,-3.667656094524743e+00,1.699713501447425e+01,7.972562179389774e+01,
883,9.333333333321737e-03,-2.000000000001806e-04,-2.572054707981621e-04,-1.735959129157371e-03,-5.280011851731360e+01,-4.172200026316060e-01,7.888638445909254e+00,5.470731690478507e+01,
884,9.333333333323136e-03,-1.000000000002033e-04,-2.278031378039257e-04,-1.740271591890065e-03,-2.934325749968197e+01,2.388209356506603e+00,-5.635245817431649e-01,3.175147600761749e+01,
885,9.333333333324534e-03,-2.258799701101988e-16,-1.984298474695785e-04,-1.744649532595318e-03,-5.436152207477090e+00,4.760611690031114e+00,-8.353431195826872e+00,1.957276794311885e+01,
886,9.333333333325932e-03,9.999999999979676e-05,-1.690774840112080e-04,-1.749095300667781e-03,1.889744639579844e+01,6.711728794576027e+00,-1.547534560820897e+01,3.326314777995000e+01,
887,9.333333333327335e-03,1.999999999998192e-04,-1.397379244980637e-04,-1.753611132363751e-03,4.363417947514021e+01,8.253060226316585e+00,-2.192370761583846e+01,5.634198631392552e+01,
888,9.333333333328728e-03,2.999999999998644e-04,-1.104030390523141e-04,-1.758199152068098e-03,6.875108277600773e+01,9.395859458328694e+00,-2.769312113518417e+01,8.118299309537366e+01,
889,9.333333333330132e-03,3.999999999999323e-04,-8.106469101532282e-05,-1.762861373559000e-03,9.422558898457261e+01,1.015113052218205e+01,-3.277834277512048e+01,1.066123519395263e+02,
890,9.466666666652343e-03,-4.000000000000744e-04,-3.226045379555641e-04,-1.766744224864698e-03,-9.434023161156374e+01,-7.115393710910863e+00,2.575962425536245e+01,1.013035306092784e+02,
891,9.466666666653719e-03,-3.000000000001490e-04,-2.929909653396652e-04,-1.770983138009332e-03,-7.280895959895084e+01,-3.497817418082762e+00,1.632057360963790e+01,7.661252457794970e+01,
892,9.466666666655084e-03,-2.000000000001987e-04,-2.634213972610472e-04,-1.775279873174753e-03,-5.078510112529337e+01,-3.315743635008301e-01,7.515467231864156e+00,5.264491764221700e+01,
893,9.466666666656460e-03,-1.000000000002237e-04,-2.338879064828007e-04,-1.779636984635432e-03,-2.829295699763489e+01,2.395343047213338e+00,-6.492749321649021e-01,3.071576128623190e+01,
894,9.466666666657826e-03,-2.484855854065215e-16,-2.043825564295919e-04,-1.784056911506030e-03,-5.356458866704820e+00,4.694720793040126e+00,-8.167426587217353e+00,1.917951096307750e+01,
895,9.466666666659197e-03,9.999999999977643e-05,-1.748974014578585e-04,-1.788541978949917e-03,1.800083367775057e+01,6.578118288772099e+00,-1.503294391487843e+01,3.216264973302305e+01,
896,9.466666666660567e-03,1.999999999998011e-04,-1.454244870935427e-04,-1.793094399391509e-03,4.175573590883183e+01,8.056863948341487e+00,-2.123995441400741e+01,5.422321113182041e+01,
897,9.466666666661938e-03,2.999999999998509e-04,-1.159558502370086e-04,-1.797716273729738e-03,6.588544065284299e+01,9.142051236623885e+00,-2.678274576084329e+01,7.803251965943791e+01,
898,9.466666666663308e-03,3.999999999999255e-04,-8.648351933510514e-05,-1.802409592549943e-03,9.036752087687064e+01,9.844535194386234e+00,-3.165575469937187e+01,1.024319210284021e+02,
899,9.599999999985750e-03,-4.000000000000813e-04,-3.291108710569703e-04,-1.806143526233868e-03,-9.050015795512684e+01,-6.854835864051894e+00,2.477284591604770e+01,9.721787637487580e+01,
900,9.599999999987095e-03,-3.000000000001627e-04,-2.993737588595311e-04,-1.810430687020835e-03,-6.989879961100011e+01,-3.328657202511305e+00,1.565041265770603e+01,7.356171236256279e+01,
901,9.599999999988435e-03,-2.000000000002168e-04,-2.696794117575092e-04,-1.814773119404533e-03,-4.881139814290572e+01,-2.476831025536788e-01,7.145846525919297e+00,5.062298794824823e+01,
902,9.599999999989778e-03,-1.000000000002440e-04,-2.400200753591828e-04,-1.819173350714312e-03,-2.726203417717549e+01,2.399894533511534e+00,-7.341484613750173e-01,2.969824760303606e+01,
903,9.599999999991123e-03,-2.710369905942200e-16,-2.103879843161904e-04,-1.823633793619445e-03,-5.274436375060251e+00,4.625673227134040e+00,-7.983056797603795e+00,1.878640342030726e+01,
904,9.599999999992465e-03,9.999999999975610e-05,-1.807753625960325e-04,-1.828156747284318e-03,1.712802169332782e+01,6.441034899907047e+00,-1.459454066040439e+01,3.108398550822495e+01,
905,9.599999999993804e-03,1.999999999997831e-04,-1.511744237228873e-04,-1.832744398528050e-03,3.992232455094912e+01,7.857141342288805e+00,-2.056242908649548e+01,5.214815369649796e+01,
906,9.599999999995149e-03,2.999999999998373e-04,-1.215773709862718e-04,-1.837398822985822e-03,6.308581771577480e+01,8.884930175274800e+00,-2.588070715744928e+01,7.494651574327196e+01,
907,9.599999999996492e-03,3.999999999999186e-04,-9.197639761751277e-05,-1.842121986269220e-03,8.659621049969304e+01,9.535111280479208e+00,-3.054350519574187e+01,9.833634044158222e+01,
908,9.733333333319150e-03,-4.000000000000881e-04,-3.356472008866803e-04,-1.845711510278215e-03,-8.674539094328796e+01,-6.594150231963049e+00,2.379648768742065e+01,9.321648294478288e+01,
909,9.733333333320470e-03,-3.000000000001761e-04,-3.057917298785692e-04,-1.850045280334611e-03,-6.705174730417238e+01,-3.160506947209428e+00,1.498740676170414e+01,7.057322466852645e+01,
910,9.733333333321782e-03,-2.000000000002348e-04,-2.759777930373382e-04,-1.854431833402951e-03,-4.687881054265820e+01,-1.657090702948318e-01,6.780300764070128e+00,4.864158470868642e+01,
911,9.733333333323097e-03,-1.000000000002643e-04,-2.461978081582101e-04,-1.858873668191796e-03,-2.625044762871633e+01,2.401857797974574e+00,-8.178561245027046e-01,2.869895748674379e+01,
912,9.733333333324410e-03,-2.936697109448549e-16,-2.164441805332524e-04,-1.863373169239935e-03,-5.190190213484247e+00,4.553608133793180e+00,-7.800272941847623e+00,1.839344008340166e+01,
913,9.733333333325723e-03,9.999999999973578e-05,-1.867093032249093e-04,-1.867932608019696e-03,1.627876867959715e+01,6.300751398042738e+00,-1.416033145713808e+01,3.002700079553494e+01,
914,9.733333333327040e-03,1.999999999997650e-04,-1.569855573085833e-04,-1.872554144045192e-03,3.813357783891167e+01,7.654287430499079e+00,-1.989157567710219e+01,5.011672650395161e+01,
915,9.733333333328356e-03,2.999999999998238e-04,-1.272653120837531e-04,-1.877239825982844e-03,6.035173095294837e+01,8.625002334008794e+00,-2.498770134730201e+01,7.192492841918759e+01,
916,9.733333333329670e-03,3.999999999999119e-04,-9.754092525355440e-05,-1.881991592761440e-03,8.291106960125613e+01,9.223464830385696e+00,-2.944254545518518e+01,9.432559052765369e+01,
917,9.866666666652557e-03,-4.000000000000948e-04,-3.422120551661590e-04,-1.885441262250102e-03,-8.307539890295229e+01,-6.333833692217970e+00,2.283148486472989e+01,8.929935405985279e+01,
918,9.866666666653850e-03,-3.000000000001899e-04,-3.122432902306039e-04,-1.889820017867049e-03,-6.426744523262855e+01,-2.993688304200657e+00,1.433227797347907e+01,6.764709938911172e+01,
919,9.866666666655134e-03,-2.000000000002530e-04,-2.823148376865908e-04,-1.894249129339403e-03,-4.498714456099397e+01,-8.581023321419323e-02,6.419333005600165e+00,4.670076197838966e+01,
920,9.866666666656415e-03,-1.000000000002846e-04,-2.524192868753571e-04,-1.898731065153703e-03,-2.525815679555922e+01,2.401227128023746e+00,-9.001191375754838e-01,2.771790715186625e+01,
921,9.866666666657708e-03,-3.162346686597095e-16,-2.225492131582960e-04,-1.903268180106826e-03,-5.103822642867636e+00,4.478660737440737e+00,-7.619025349655140e+00,1.800061601303235e+01,
922,9.866666666658992e-03,9.999999999971544e-05,-1.926971781903125e-04,-1.907862716358791e-03,1.545283984772958e+01,6.157532749043790e+00,-1.373050016717425e+01,2.899153796234286e+01,
923,9.866666666660279e-03,1.999999999997469e-04,-1.628557301629590e-04,-1.912516804491030e-03,3.638913864129821e+01,7.448685857415692e+00,-1.922781559781999e+01,4.812884143620343e+01,
924,9.866666666661564e-03,2.999999999998101e-04,-1.330174040168180e-04,-1.917232464567389e-03,5.768271096351199e+01,8.362759116145051e+00,-2.410439093690998e+01,6.896770476088169e+01,
925,9.866666666662848e-03,3.999999999999051e-04,-1.031747216230406e-04,-1.922011607195174e-03,7.931152646209196e+01,8.910184233096754e+00,-2.835378256949664e+01,9.039965116988711e+01,
926,9.999999999985963e-03,-4.000000000001017e-04,-3.488039803492123e-04,-1.925326012947917e-03,-7.948966576710575e+01,-6.074367557226122e+00,2.187873026185904e+01,8.546649263150033e+01,
927,9.999999999987217e-03,-3.000000000002032e-04,-3.187268709660794e-04,-1.929748146408660e-03,-6.154554633839667e+01,-2.828512779900344e+00,1.368571670181916e+01,6.478337283963680e+01,
928,9.999999999988480e-03,-2.000000000002709e-04,-2.886888619614346e-04,-1.934218269596103e-03,-4.313621196887533e+01,-8.139438559456647e-03,6.063425471331688e+00,4.480057091115874e+01,
929,9.999999999989736e-03,-1.000000000003050e-04,-2.586827135993133e-04,-1.938738819246044e-03,-2.428512214685364e+01,2.397997275271168e+00,-9.806687941685964e-01,2.675510618986213e+01,
930,9.999999999990992e-03,-3.388131789017201e-16,-2.287011707551606e-04,-1.943312118873811e-03,-5.015432776440157e+00,4.400962416315024e+00,-7.439263723069288e+00,1.760792655004109e+01,
931,9.999999999992256e-03,9.999999999969511e-05,-1.987369631878929e-04,-1.947940379777971e-03,1.465000742436408e+01,6.011636095304865e+00,-1.330521938199485e+01,2.797743573722864e+01,
932,9.999999999993511e-03,1.999999999997289e-04,-1.687828057825088e-04,-1.952625702049930e-03,3.468866041618070e+01,7.240708776297621e+00,-1.857154842377442e+01,4.618440962761949e+01,
933,9.999999999994772e-03,2.999999999997967e-04,-1.388313987626423e-04,-1.957370075586746e-03,5.507830223489096e+01,8.098677053338720e+00,-2.323140620809326e+01,6.607479186362127e+01,
934,9.999999999996029e-03,3.999999999998984e-04,-1.088754278729580e-04,-1.962175381104379e-03,7.579702629193073e+01,8.595839890593224e+00,-2.727808090252863e+01,8.655850186230639e+01,
935,1.013333333331937e-02,-4.000000000001083e-04,-3.554215434031678e-04,-1.965359138445411e-03,-7.598769144561244e+01,-5.816217278500792e+00,2.093907547813524e+01,8.171790081923174e+01,
936,1.013333333332060e-02,-3.000000000002168e-04,-3.252409241201514e-04,-1.969823059294417e-03,-5.888571426118125e+01,-2.665281480496827e+00,1.304838260351450e+01,6.198207979987647e+01,
937,1.013333333332183e-02,-2.000000000002891e-04,-2.950982035440693e-04,-1.974332664379522e-03,-4.132583030656255e+01,6.715578796974508e-02,5.713040075130627e+00,4.294105966813509e+01,
938,1.013333333332306e-02,-1.000000000003253e-04,-2.649863122565509e-04,-1.978890357227694e-03,-2.333130534127434e+01,2.392163590712100e+00,-1.059246281997753e+00,2.581055723223688e+01,
939,1.013333333332429e-02,-3.614458992523550e-16,-2.348981641079719e-04,-1.983498428603063e-03,-4.925116650068804e+00,4.320640774495443e+00,-7.260937285646849e+00,1.721536730419283e+01,
940,1.013333333332552e-02,9.999999999967477e-05,-2.048266564872209e-04,-1.988159057462919e-03,1.387005066912120e+01,5.863310748842608e+00,-1.288465089472425e+01,2.698452887983514e+01,
941,1.013333333332675e-02,1.999999999997108e-04,-1.747646705627812e-04,-1.992874311919995e-03,3.303180733015306e+01,7.030716760697667e+00,-1.792315266641810e+01,4.428334130139622e+01,
942,1.013333333332798e-02,2.999999999997832e-04,-1.447050714944589e-04,-1.997646150208322e-03,5.253806336849937e+01,7.833217631085764e+00,-2.236934618058927e+01,6.324613685114785e+01,
943,1.013333333332921e-02,3.999999999998916e-04,-1.146407086156204e-04,-2.002476421649988e-03,7.236703157721901e+01,8.280983964555229e+00,-2.621626343072324e+01,8.280212178252992e+01,
944,1.026666666665277e-02,-4.000000000001152e-04,-3.620633335144813e-04,-2.005534159830250e-03,-7.256899213344067e+01,-5.559832205734404e+00,2.001333213555684e+01,7.805358010296109e+01,
945,1.026666666665397e-02,-3.000000000002303e-04,-3.317839244049533e-04,-2.010038296084753e-03,-5.628762359745706e+01,-2.504284899928988e+00,1.242090545817928e+01,5.924325354888209e+01,
946,1.026666666665517e-02,-2.000000000003072e-04,-3.015412232225002e-04,-2.014585871343978e-03,-3.955582309572939e+01,1.399334117249376e-01,5.368618945717519e+00,4.112227331065699e+01,
947,1.026666666665638e-02,-1.000000000003456e-04,-2.713283302794143e-04,-2.019179254536696e-03,-2.239666936445693e+01,2.383722152743939e+00,-1.135602498361630e+00,2.488425558225324e+01,
948,1.026666666665758e-02,-3.840108569672096e-16,-2.411383278783278e-04,-2.023820702274359e-03,-4.832967294983048e+00,4.237819708661226e+00,-7.083994924330417e+00,1.682293414411524e+01,
949,1.026666666665878e-02,9.999999999965446e-05,-2.109642805787667e-04,-2.028512359760771e-03,1.311275588904528e+01,5.712798202325389e+00,-1.246894615053352e+01,2.601264781187919e+01,
950,1.026666666665998e-02,1.999999999996927e-04,-1.807992354357933e-04,-2.033256261708333e-03,3.141825435283832e+01,6.819058747384108e+00,-1.728298652666838e+01,4.242554557762813e+01,
951,1.026666666666119e-02,2.999999999997696e-04,-1.506362222099942e-04,-2.038054333258264e-03,5.006156726522469e+01,7.566827163514537e+00,-2.151877965198109e+01,6.048168687424280e+01,
952,1.026666666666239e-02,3.999999999998848e-04,-1.204682535486768e-04,-2.042908390902020e-03,6.902102234456574e+01,7.966150164824286e+00,-2.516911305442400e+01,7.913048985485983e+01,
953,1.039999999998618e-02,-4.000000000001219e-04,-3.687279637205098e-04,-2.045844742952186e-03,-6.923310056493530e+01,-5.305645407975701e+00,1.910227309319997e+01,7.447353135278229e+01,
954,1.039999999998735e-02,-3.000000000002439e-04,-3.383543708277444e-04,-2.050387542257726e-03,-5.375096012341465e+01,-2.345802756894732e+00,1.180388602566137e+01,5.656692589405837e+01,
955,1.039999999998853e-02,-2.000000000003252e-04,-3.080163064959403e-04,-2.054971595227841e-03,-3.782602001109111e+01,2.100570324811857e-01,5.030584941284519e+00,3.934425366264407e+01,
956,1.039999999998970e-02,-1.000000000003660e-04,-2.777070401995877e-04,-2.059599234870587e-03,-2.148117865972456e+01,2.372669872734096e+00,-1.209497867071146e+00,2.397618881664220e+01,
957,1.039999999999087e-02,-4.066435773178445e-16,-2.474198221875658e-04,-2.064272682309669e-03,-4.739074802710195e+00,4.152619480147243e+00,-6.908385323655832e+00,1.643062318782258e+01,
958,1.039999999999205e-02,9.999999999963410e-05,-2.171478837456585e-04,-2.068994047649067e-03,1.237791643215901e+01,5.560332150945493e+00,-1.205824668977695e+01,2.506161823102245e+01,
959,1.039999999999322e-02,1.999999999996746e-04,-1.868844374319257e-04,-2.073765330844565e-03,2.984768732174423e+01,6.606072005531659e+00,-1.665138862774984e+01,4.061093024588619e+01,
960,1.039999999999440e-02,2.999999999997560e-04,-1.566226772841238e-04,-2.078588422579593e-03,4.764840125987659e+01,7.299936701436792e+00,-2.068024620983439e+01,5.778138909217355e+01,
961,1.039999999999558e-02,3.999999999998780e-04,-1.263557789990373e-04,-2.083465105142553e-03,6.575849638058240e+01,7.651853602663822e+00,-2.413737387776632e+01,7.554358480890977e+01,
962,1.053333333331958e-02,-4.000000000001287e-04,-3.754140724691282e-04,-2.086284698181172e-03,-6.597956620224318e+01,-5.054073538760950e+00,1.820663363276097e+01,7.097775489009467e+01,
963,1.053333333332072e-02,-3.000000000002574e-04,-3.449507882367058e-04,-2.090864628912564e-03,-5.127542096421499e+01,-2.190103862675513e+00,1.119789688744120e+01,5.395312719171841e+01,
964,1.053333333332187e-02,-2.000000000003433e-04,-3.145218651076183e-04,-2.095483687502550e-03,-3.613625702886999e+01,2.773959991142512e-01,4.699342157413203e+00,3.760703915083171e+01,
965,1.053333333332302e-02,-1.000000000003863e-04,-2.841207411687150e-04,-2.100144169781015e-03,-2.058479923424934e+01,2.359004592287883e+00,-1.280702154799703e+00,2.308633635005473e+01,
966,1.053333333332417e-02,-4.291949825055430e-16,-2.537408341259552e-04,-2.104848260113431e-03,-4.643526394285651e+00,4.065156779739310e+00,-6.734057093803565e+00,1.603843079593418e+01,
967,1.053333333332531e-02,9.999999999961377e-05,-2.233755415621528e-04,-2.109598032221788e-03,1.166533266613927e+01,5.406138522220569e+00,-1.165268457309875e+01,2.413126068757704e+01,
968,1.053333333332646e-02,1.999999999996566e-04,-1.930182411683062e-04,-2.114395450012723e-03,2.831980297818142e+01,6.392082130267868e+00,-1.602867873038749e+01,3.883940150094911e+01,
969,1.053333333332761e-02,2.999999999997425e-04,-1.626622909477324e-04,-2.119242368410153e-03,4.529816721631721e+01,7.032961982897469e+00,-1.985425722258401e+01,5.514519064250165e+01,
970,1.053333333332875e-02,3.999999999998712e-04,-1.323010293927860e-04,-2.124140534189772e-03,6.257896939398728e+01,7.338590695644359e+00,-2.312175246069971e+01,7.204138523204445e+01,
971,1.066666666665299e-02,-4.000000000001354e-04,-3.821203251078274e-04,-2.126847980175776e-03,-6.280795537409874e+01,-4.805516753598314e+00,1.732711262172562e+01,6.756625054824910e+01,
972,1.066666666665410e-02,-3.000000000002711e-04,-3.515717287960750e-04,-2.131463532484959e-03,-4.886071472653011e+01,-2.037446032506440e+00,1.060348327139954e+01,5.140188635779953e+01,
973,1.066666666665522e-02,-2.000000000003614e-04,-3.210563385067721e-04,-2.136116146034863e-03,-3.448637654374265e+01,3.418254986858200e-01,4.375276425195385e+00,3.591066460949590e+01,
974,1.066666666665634e-02,-1.000000000004066e-04,-2.905677604080284e-04,-2.140808078282929e-03,-1.970749875326580e+01,2.342725165102421e+00,-1.348994286016238e+00,2.221466896411009e+01,
975,1.066666666665746e-02,-4.517870452747097e-16,-2.600995791907010e-04,-2.145541475628782e-03,-4.546406483848994e+00,3.975544794336372e+00,-6.560958890992458e+00,1.564635356448707e+01,
976,1.066666666665858e-02,9.999999999959343e-05,-2.296453583206783e-04,-2.150318374192763e-03,1.097481195234701e+01,5.250435522153357e+00,-1.125238279615980e+01,2.322139013667805e+01,
977,1.066666666665970e-02,1.999999999996385e-04,-1.991986402655594e-04,-2.155140700601883e-03,2.683430897829431e+01,6.177403059233574e+00,-1.541515842682828e+01,3.711086363109577e+01,
978,1.066666666666081e-02,2.999999999997289e-04,-1.687529466947794e-04,-2.160010272780558e-03,4.301048159048503e+01,6.766303422052592e+00,-1.904129680233552e+01,5.257303859169267e+01,
979,1.066666666666193e-02,3.999999999998644e-04,-1.383017786530695e-04,-2.164928800743410e-03,5.948197511467796e+01,7.026839113318522e+00,-2.212291904229255e+01,6.862386961348386e+01,
980,1.079999999998639e-02,-4.000000000001423e-04,-3.888454153040142e-04,-2.167528687662026e-03,-5.971785136567902e+01,-4.560358679129403e+00,1.646437365065048e+01,6.423901772520895e+01,
981,1.079999999998748e-02,-3.000000000002845e-04,-3.582157733923246e-04,-2.172178374474258e-03,-4.650656159467930e+01,-1.888076032267636e+00,1.002116386194906e+01,4.891323087340758e+01,
982,1.079999999998857e-02,-2.000000000003794e-04,-3.276181952415531e-04,-2.176863114762372e-03,-3.287622745724700e+01,4.032266237288327e-01,4.058755801648767e+00,3.425516104994178e+01,
983,1.079999999998966e-02,-1.000000000004269e-04,-2.970464545887589e-04,-2.181585126478510e-03,-1.884924662437301e+01,2.323831521656598e+00,-1.414162162159255e+00,2.136114829922325e+01,
984,1.079999999999075e-02,-4.743926605710325e-16,-2.664943026545525e-04,-2.186346516909945e-03,-4.447796745091160e+00,3.883893270062491e+00,-6.389039532264174e+00,1.525438832231397e+01,
985,1.079999999999184e-02,9.999999999957311e-05,-2.359554683893830e-04,-2.191149283416505e-03,1.030616860500443e+01,5.093433690007648e+00,-1.085745569015039e+01,2.233181545572019e+01,
986,1.079999999999293e-02,1.999999999996205e-04,-2.054236586948910e-04,-2.195995314175612e-03,2.539092387997394e+01,5.962337111110585e+00,-1.481111181869718e+01,3.542521865929775e+01,
987,1.079999999999402e-02,2.999999999997154e-04,-1.748925586195011e-04,-2.200886388932315e-03,4.078497544152570e+01,6.500346123369991e+00,-1.824182274948117e+01,5.006487986979792e+01,
988,1.079999999999512e-02,3.999999999998577e-04,-1.443558315280041e-04,-2.205824179751578e-03,5.646706535598680e+01,6.717057778247053e+00,-2.114150873577311e+01,6.529101638421817e+01,
989,1.093333333331979e-02,-4.000000000001490e-04,-3.955880663981798e-04,-2.208321063222954e-03,-5.670885445687509e+01,-4.318966419008468e+00,1.561904614516315e+01,6.099605543442252e+01,
990,1.093333333332085e-02,-3.000000000002982e-04,-3.648815329731415e-04,-2.213003421182761e-03,-4.421269338500814e+01,-1.742229558047650e+00,9.451431593685928e+00,4.648718677611776e+01,
991,1.093333333332192e-02,-2.000000000003975e-04,-3.342059342846140e-04,-2.217718883382574e-03,-3.130566524514396e+01,4.614864112176753e-01,3.750131054454770e+00,3.264055538836041e+01,
992,1.093333333332298e-02,-1.000000000004473e-04,-3.035552111450840e-04,-2.222469627196003e-03,-1.801001406081123e+01,2.302324726006583e+00,-1.476002477109336e+00,2.052572630237953e+01,
993,1.093333333332404e-02,-4.970253809216674e-16,-2.729232808669049e-04,-2.227257719710865e-03,-4.347776169987817e+00,3.790308573517601e+00,-6.218248103118441e+00,1.486253212545628e+01,
994,1.093333333332511e-02,9.999999999955278e-05,-2.423040375019821e-04,-2.232085118426752e-03,9.659223837673029e+00,4.935335959250413e+00,-1.046800931168013e+01,2.146233893324760e+01,
995,1.093333333332617e-02,1.999999999996024e-04,-2.116913520573639e-04,-2.236953671960398e-03,2.398937710824552e+01,5.747175046365695e+00,-1.421680617621387e+01,3.378236592476294e+01,
996,1.093333333332723e-02,2.999999999997017e-04,-1.810790726857148e-04,-2.241865120756211e-03,3.862129442203263e+01,6.235459937465142e+00,-1.745626746902653e+01,4.762066117834333e+01,
997,1.093333333332830e-02,3.999999999998510e-04,-1.504610248505091e-04,-2.246821097799223e-03,5.353381002228774e+01,6.409686906913283e+00,-2.017812269745896e+01,6.204280394830494e+01,
998,1.106666666665320e-02,-4.000000000001559e-04,-4.023470326915343e-04,-2.249219493098921e-03,-5.378058191351454e+01,-4.081690606590430e+00,1.479172645898118e+01,5.783736235070504e+01,
999,1.106666666665423e-02,-3.000000000003116e-04,-3.715676498208418e-04,-2.253933083467225e-03,-4.197885356597445e+01,-1.600131248277036e+00,8.894754429691815e+00,4.412377863995562e+01,
1000,1.106666666665527e-02,-2.000000000004156e-04,-3.408180862930743e-04,-2.258677887055524e-03,-2.977455199962338e+01,5.164978589452134e-01,3.449736137783700e+00,3.106687012261794e+01,
1001,1.106666666665631e-02,-1.000000000004676e-04,-3.100924495214445e-04,-2.263456039643537e-03,-1.718977413700326e+01,2.278207017865493e+00,-1.534320535713594e+00,1.970834463549830e+01,
1002,1.106666666665734e-02,-5.195225760007416e-16,-2.793848224890905e-04,-2.268269567090197e-03,-4.246421131771818e+00,3.694893752193707e+00,-6.048534059711109e+00,1.447078225847635e+01,
1003,1.106666666665837e-02,9.999999999953246e-05,-2.486892639817948e-04,-2.273120385992627e-03,9.033805704492829e+00,4.776337729707535e+00,-1.008414181870413e+01,2.061275572152526e+01,
1004,1.106666666665941e-02,1.999999999995843e-04,-2.179998087972765e-04,-2.278010304353065e-03,2.262940890087306e+01,5.532196145879805e+00,-1.363249257919072e+01,3.218220159771957e+01,
1005,1.106666666666044e-02,2.999999999996883e-04,-1.873104679301132e-04,-2.282941022251043e-03,3.651909873061190e+01,5.971999542385748e+00,-1.668503886935829e+01,4.524032887925677e+01,
1006,1.106666666666148e-02,3.999999999998441e-04,-1.566152287321161e-04,-2.287914132518196e-03,5.068179706698360e+01,6.105148086133905e+00,-1.923332926823884e+01,5.887921070567998e+01,
1007,1.119999999998660e-02,-4.000000000001626e-04,-4.091211006698514e-04,-2.290218506998789e-03,-5.093266794180666e+01,-3.848865497280464e+00,1.398297893901956e+01,5.476293685213960e+01,
1008,1.119999999998761e-02,-3.000000000003254e-04,-3.782727987619414e-04,-2.294961916502627e-03,-3.980479724917750e+01,-1.461994727890123e+00,8.351576126138722e+00,4.182302954532589e+01,
1009,1.119999999998861e-02,-2.000000000004337e-04,-3.474532148046500e-04,-2.299734706120147e-03,-2.828275644113553e+01,5.681599293199313e-01,3.157888660218469e+00,2.953412295255033e+01,
1010,1.119999999998962e-02,-1.000000000004879e-04,-3.166566223559128e-04,-2.304538969077959e-03,-1.638850182704556e+01,2.251481842967981e+00,-1.588930071435236e+00,1.890893403410188e+01,
1011,1.119999999999063e-02,-5.421552963513765e-16,-2.858772696657926e-04,-2.309376689032679e-03,-4.143805440681031e+00,3.597748592053829e+00,-5.879847325912275e+00,1.407913623578891e+01,
1012,1.119999999999164e-02,9.999999999951214e-05,-2.551093799017886e-04,-2.314249740692586e-03,8.429749030466262e+00,4.616626949284103e+00,-9.705943836265487e+00,1.978285325773203e+01,
1013,1.119999999999264e-02,1.999999999995662e-04,-2.243471513514769e-04,-2.319159890447266e-03,2.131077022590149e+01,5.317668306187854e+00,-1.305840654484341e+01,3.062461811967597e+01,
1014,1.119999999999365e-02,2.999999999996748e-04,-1.935847576014875e-04,-2.324108797002689e-03,3.447806302976510e+01,5.710304553028203e+00,-1.592852123838464e+01,4.292382884998203e+01,
1015,1.119999999999466e-02,3.999999999998373e-04,-1.628163476925947e-04,-2.329098012018939e-03,4.791063242175758e+01,5.803844398991920e+00,-1.830766509035040e+01,5.580021506979933e+01,
1016,1.133333333332000e-02,-4.000000000001694e-04,-4.159090901651065e-04,-2.331312777922041e-03,-4.816476359423281e+01,-3.620809096122370e+00,1.319333697284699e+01,5.177277705750483e+01,
1017,1.133333333332098e-02,-3.000000000003387e-04,-3.849956883145715e-04,-2.336084619558228e-03,-3.769029113920800e+01,-1.328022678067607e+00,7.822316983199019e+00,3.958496102792854e+01,
1018,1.133333333332196e-02,-2.000000000004516e-04,-3.541099173715811e-04,-2.340884065824249e-03,-2.683015392117746e+01,6.163775185121669e-01,2.874890348695499e+00,2.804232633249177e+01,
1019,1.133333333332294e-02,-1.000000000005083e-04,-3.232462166014397e-04,-2.345713166488736e-03,-1.560617403752505e+01,2.222153870804082e+00,-1.639653065679797e+00,1.812741362439992e+01,
1020,1.133333333332393e-02,-5.647067015390750e-16,-2.923989991342379e-04,-2.350573862086902e-03,-4.040000395930930e+00,3.498969676389241e+00,-5.712138383221107e+00,1.368759180380576e+01,
1021,1.133333333332490e-02,9.999999999949181e-05,-2.615626521824379e-04,-2.355467984506006e-03,7.846895334383630e+00,4.456384198706539e+00,-9.333498811331616e+00,1.897241065351647e+01,
1022,1.133333333332588e-02,1.999999999995482e-04,-2.307315372365318e-04,-2.360397257578981e-03,2.003322269549574e+01,5.103848156444347e+00,-1.249476863407827e+01,2.910950355131224e+01,
1023,1.133333333332686e-02,2.999999999996612e-04,-1.998999902377188e-04,-2.365363297683482e-03,3.249787634047788e+01,5.450699658743961e+00,-1.518707609769099e+01,4.067110630461335e+01,
1024,1.133333333332784e-02,3.999999999998306e-04,-1.690623217273915e-04,-2.370367614343759e-03,4.521993987545623e+01,5.506160579788535e+00,-1.740163620053998e+01,5.280579547520118e+01,
1025,1.146666666665341e-02,-4.000000000001761e-04,-4.227098554565638e-04,-2.372497121991771e-03,-4.547653663961499e+01,-3.397823320423049e+00,1.242330401443712e+01,4.886688086157391e+01,
1026,1.146666666665436e-02,-3.000000000003523e-04,-3.917350617753912e-04,-2.377296035785943e-03,-3.563511346760789e+01,-1.198406940030756e+00,7.307374579980319e+00,3.740959301402574e+01,
1027,1.146666666665531e-02,-2.000000000004698e-04,-3.607868266341574e-04,-2.382120836068115e-03,-2.541662639400990e+01,6.610614183070946e-01,2.601027500557478e+00,2.659148694359327e+01,
1028,1.146666666665626e-02,-1.000000000005286e-04,-3.298597545866577e-04,-2.386973528296807e-03,-1.484276961853647e+01,2.190229007586025e+00,-1.686319565746499e+00,1.736369018696108e+01,
1029,1.146666666665721e-02,-5.872987643082417e-16,-2.989484232730087e-04,-2.391856009019358e-03,-3.935074846612514e+00,3.398650435016445e+00,-5.545358356085902e+00,1.329614694925002e+01,
1030,1.146666666665817e-02,9.999999999947150e-05,-2.680473836291958e-04,-2.396770066422483e-03,7.285092745192556e+00,4.295782787589799e+00,-8.966883356943809e+00,1.818119805102971e+01,
1031,1.146666666665911e-02,1.999999999995301e-04,-2.371511600754723e-04,-2.401717380890942e-03,1.879653844780153e+01,4.890981185073686e+00,-1.194178504851457e+01,2.763674082388710e+01,
1032,1.146666666666006e-02,2.999999999996475e-04,-2.062542506824428e-04,-2.406699525571831e-03,3.057824190169167e+01,5.193494781908012e+00,-1.446104303936667e+01,3.848210557494257e+01,
1033,1.146666666666102e-02,3.999999999998238e-04,-1.753511273146992e-04,-2.411717966941629e-03,4.260936091668620e+01,5.212463202756146e+00,-1.651571909778517e+01,4.989593037406888e+01,
1034,1.159999999998682e-02,-4.000000000001829e-04,-4.295222863130058e-04,-2.413766498298515e-03,-4.286767140392919e+01,-3.180194201839718e+00,1.167335458754630e+01,4.604524596494978e+01,
1035,1.159999999998774e-02,-3.000000000003658e-04,-3.984896982476908e-04,-2.418591152020870e-03,-3.363905388598657e+01,-1.073328635827177e+00,6.807124499912898e+00,3.529694373310708e+01,
1036,1.159999999998866e-02,-2.000000000004878e-04,-3.674826113354289e-04,-2.423440031161730e-03,-2.404206236541878e+01,7.021282589218816e-01,2.336571435160785e+00,2.518160507076834e+01,
1037,1.159999999998958e-02,-1.000000000005489e-04,-3.364957950179951e-04,-2.428315096068356e-03,-1.409826937379147e+01,2.155714389796520e+00,-1.728767505046675e+00,1.661765737199450e+01,
1038,1.159999999999051e-02,-6.098501694959402e-16,-3.055239910922379e-04,-2.433218198484788e-03,-3.829095238279177e+00,3.296881196877773e+00,-5.379459093250221e+00,1.290479990926718e+01,
1039,1.159999999999143e-02,9.999999999945122e-05,-2.745619139114027e-04,-2.438151082068610e-03,6.744195904762579e+00,4.134988850679559e+00,-8.606167584401714e+00,1.740897594387171e+01,
1040,1.159999999999235e-02,1.999999999995120e-04,-2.436042505660250e-04,-2.443115382915941e-03,1.760050001889396e+01,4.679301884576159e+00,-1.139964820734497e+01,2.620620686461876e+01,
1041,1.159999999999328e-02,2.999999999996339e-04,-2.126456610432094e-04,-2.448112630091965e-03,2.871887701811470e+01,4.938985268703923e+00,-1.375074054214309e+01,3.635676984335992e+01,
1042,1.159999999999420e-02,3.999999999998171e-04,-1.816807783641295e-04,-2.453144246164353e-03,4.007855454398023e+01,4.923100906934176e+00,-1.565036178934759e+01,4.707059822199394e+01,
1043,1.173333333332022e-02,-4.000000000001895e-04,-4.363453089776276e-04,-2.455116008754864e-03,-4.033786856162424e+01,-2.968192107592311e+00,1.094393527288519e+01,4.330786990037066e+01,
1044,1.173333333332111e-02,-3.000000000003795e-04,-4.052584136123091e-04,-2.459965098593978e-03,-3.170191333826128e+01,-9.529583219798943e-01,6.321921041033171e+00,3.324702959949246e+01,
1045,1.173333333332201e-02,-2.000000000005060e-04,-3.741959772789069e-04,-2.464836809595429e-03,-2.270635684045293e+01,7.395004230090243e-01,2.081778934252969e+00,2.381267387218473e+01,
1046,1.173333333332290e-02,-1.000000000005693e-04,-3.431529339248032e-04,-2.469733056243399e-03,-1.337265605412151e+01,2.118618375100230e+00,-1.766842522980848e+00,1.588919486460886e+01,
1047,1.173333333332380e-02,-6.325370999551994e-16,-3.121241891668563e-04,-2.474655644712556e-03,-3.722125662767486e+00,3.193749240874827e+00,-5.214393242428121e+00,1.251354918596438e+01,
1048,1.173333333332469e-02,9.999999999943085e-05,-2.811046204843356e-04,-2.479606273352225e-03,6.224065876878617e+00,3.974161457828092e+00,-8.251415429229587e+00,1.665549447593122e+01,
1049,1.173333333332559e-02,1.999999999994939e-04,-2.500890773921088e-04,-2.484586533178788e-03,1.644490020612618e+01,4.469033912544828e+00,-1.086853731358840e+01,2.481777159273555e+01,
1050,1.173333333332648e-02,2.999999999996203e-04,-2.190723815929527e-04,-2.489597908373622e-03,2.691951286776004e+01,4.687452090656167e+00,-1.305646676973810e+01,3.429504081400022e+01,
1051,1.173333333332738e-02,3.999999999998102e-04,-1.880493271087305e-04,-2.494641776783996e-03,3.762719704404028e+01,4.638404648547604e+00,-1.480598481507045e+01,4.432977745364059e+01,
1052,1.186666666665362e-02,-4.000000000001964e-04,-4.431778870973694e-04,-2.496540897960714e-03,-3.788684491378228e+01,-2.762072005469665e+00,1.023546567509436e+01,4.065475005709260e+01,
1053,1.186666666665449e-02,-3.000000000003929e-04,-4.120400614430770e-04,-2.501413149156768e-03,-2.982350390738117e+01,-8.374561580809743e-01,5.852097913781319e+00,3.125986506840113e+01,
1054,1.186666666665536e-02,-2.000000000005240e-04,-3.809256682308492e-04,-2.506306473823865e-03,-2.140941123736011e+01,7.731059561430266e-01,1.836892678809712e+00,2.248467851435553e+01,
1055,1.186666666665622e-02,-1.000000000005896e-04,-3.498298055492258e-04,-2.511222739878962e-03,-1.266591434256678e+01,2.078950520708896e+00,-1.800397784634255e+00,1.517816749703091e+01,
1056,1.186666666665709e-02,-6.550614000885857e-16,-3.187475425147264e-04,-2.516163707209045e-03,-3.614227904518438e+00,3.089338841849175e+00,-5.050114320910629e+00,1.212239356480692e+01,
1057,1.186666666665796e-02,9.999999999941048e-05,-2.876739194562241e-04,-2.521131028123859e-03,5.724570039562257e+00,3.813452721389973e+00,-7.902684963243175e+00,1.592049270333356e+01,
1058,1.186666666665883e-02,1.999999999994759e-04,-2.566039480803489e-04,-2.526126247816836e-03,1.532954190307867e+01,4.260390257966508e+00,-1.034861890548050e+01,2.347129675041332e+01,
1059,1.186666666665969e-02,2.999999999996070e-04,-2.255326116166447e-04,-2.531150804831589e-03,2.517989429730029e+01,4.439162074175678e+00,-1.237850035266264e+01,3.229685831586157e+01,
1060,1.186666666666056e-02,3.999999999998036e-04,-1.944548649423106e-04,-2.536206031531320e-03,3.525498173559077e+01,4.358687983997027e+00,-1.398298225205251e+01,4.167344644050493e+01,
1061,1.199999999998703e-02,-4.000000000002033e-04,-4.500190225981732e-04,-2.538036553078976e-03,-3.551433311766716e+01,-2.562073743021261e+00,9.548339372480307e+00,3.808588369700996e+01,
1062,1.199999999998786e-02,-3.000000000004066e-04,-4.188335338683747e-04,-2.542930720517727e-03,-2.800364864096291e+01,-7.269721066073999e-01,5.397968931786865e+00,2.933546244929515e+01,
1063,1.199999999998870e-02,-2.000000000005420e-04,-3.876704667688308e-04,-2.547844470063112e-03,-2.015113328173051e+01,8.028784613255096e-01,1.602141680167520e+00,2.119759514618226e+01,
1064,1.199999999998954e-02,-1.000000000006099e-04,-3.565250831824897e-04,-2.552779622406740e-03,-1.197803083162652e+01,2.036721553121650e+00,-1.829293802785525e+00,1.448442431280728e+01,
1065,1.199999999999038e-02,-6.776805679120645e-16,-3.253926154212928e-04,-2.557737890475741e-03,-3.505461482613688e+00,2.983731317060362e+00,-4.886576782029636e+00,1.173133213995862e+01,
1066,1.199999999999122e-02,9.999999999939021e-05,-2.942682664019495e-04,-2.562720879855210e-03,5.245581978890833e+00,3.653007914527993e+00,-7.560028701931980e+00,1.520369784120372e+01,
1067,1.199999999999206e-02,1.999999999994578e-04,-2.631472098034228e-04,-2.567730089218777e-03,1.425423792985894e+01,4.053573422015724e+00,-9.840047393248009e+00,2.216663454850646e+01,
1068,1.199999999999290e-02,2.999999999995933e-04,-2.320245902048531e-04,-2.572766910764745e-03,2.349977959675622e+01,4.194368147952435e+00,-1.171710115182674e+01,3.036215981803933e+01,
1069,1.199999999999374e-02,3.999999999997967e-04,-2.008955232037776e-04,-2.577832630655085e-03,3.296161868716086e+01,4.084247375298371e+00,-1.318172269619335e+01,3.910158343137186e+01,
1070,1.213333333332079e-02,-4.000000000002100e-04,-4.568677565078877e-04,-2.579598503721682e-03,-3.322008140202667e+01,-2.368422361167200e+00,8.882924850054106e+00,3.560126797096251e+01,
1071,1.213333333332161e-02,-3.000000000004200e-04,-4.256377623805032e-04,-2.584513372490534e-03,-2.624218134968754e+01,-6.216461434599641e-01,4.959828685465005e+00,2.747383166961232e+01,
1072,1.213333333332242e-02,-2.000000000005601e-04,-3.944291950783105e-04,-2.589446388100823e-03,-1.893143690714466e+01,8.287569654608833e-01,1.377741705661215e+00,1.995138969377900e+01,
1073,1.213333333332323e-02,-1.000000000006302e-04,-3.632374799493174e-04,-2.594399323405085e-03,-1.130899398555581e+01,1.991943330609025e+00,-1.853398256728975e+00,1.380779757530976e+01,
1074,1.213333333332404e-02,-7.002861832083873e-16,-3.320580122125598e-04,-2.599373843742984e-03,-3.395883701792642e+00,2.877005063025046e+00,-4.723736076167456e+00,1.134036434709748e+01,
1075,1.213333333332485e-02,9.999999999936987e-05,-3.008861571251852e-04,-2.604371507334579e-03,4.786981367812793e+00,3.492965585276034e+00,-7.223493900520207e+00,1.450482448597241e+01,
1076,1.213333333332566e-02,1.999999999994397e-04,-2.697172501319852e-04,-2.609393765681658e-03,1.321881085925848e+01,3.848775618972021e+00,-9.342965586494667e+00,2.090362610184905e+01,
1077,1.213333333332647e-02,2.999999999995798e-04,-2.385465969960648e-04,-2.614441963974592e-03,2.187894024454953e+01,3.953309601371834e+00,-1.107251100711323e+01,2.849087983840102e+01,
1078,1.213333333332728e-02,3.999999999997898e-04,-2.073694739104298e-04,-2.619517341502002e-03,3.074683440458949e+01,3.815362523383070e+00,-1.240255022846842e+01,3.661416647101147e+01,
1079,1.226666666665456e-02,-4.000000000002168e-04,-4.637231697283375e-04,-2.621222421845739e-03,-3.100385325441632e+01,-2.181328431650370e+00,8.239566418076361e+00,3.320089993043150e+01,
1080,1.226666666665534e-02,-3.000000000004337e-04,-4.324517185943979e-04,-2.626156807753148e-03,-2.453894638643637e+01,-5.216084911903922e-01,4.537953210681623e+00,2.567497997942279e+01,
1081,1.226666666665612e-02,-2.000000000005782e-04,-4.012007156986872e-04,-2.631107961118565e-03,-1.775024211336399e+01,8.506857910553304e-01,1.163895698166311e+00,1.874601642190269e+01,
1082,1.226666666665691e-02,-1.000000000006506e-04,-3.699657495420811e-04,-2.636077606384500e-03,-1.065879410530674e+01,1.944628793865323e+00,-1.872585816056886e+00,1.314810173862997e+01,
1083,1.226666666665769e-02,-7.228375883960858e-16,-3.387423779779477e-04,-2.641067360718498e-03,-3.285549679128732e+00,2.769235604465302e+00,-4.561548710593753e+00,1.094949000579045e+01,
1084,1.226666666665847e-02,9.999999999934951e-05,-3.075261283706058e-04,-2.646078734378336e-03,4.348653858941315e+00,3.333457686800527e+00,-6.893122842144496e+00,1.382357382645697e+01,
1085,1.226666666665926e-02,1.999999999994216e-04,-2.763124977368757e-04,-2.651113131085206e-03,1.222309281610260e+01,3.646178972933925e+00,-8.857505208029449e+00,1.968209961142901e+01,
1086,1.226666666666004e-02,2.999999999995662e-04,-2.450969528694295e-04,-2.656171848402365e-03,2.031716065448882e+01,3.716212374116512e+00,-1.044495447189495e+01,2.668294922768900e+01,
1087,1.226666666666082e-02,3.999999999997831e-04,-2.138749304417912e-04,-2.661256078116548e-03,2.861037149489390e+01,3.552296720574953e+00,-1.164578536135819e+01,3.421117329362819e+01,
1088,1.239999999998833e-02,-4.000000000002236e-04,-4.705843837583107e-04,-2.662904121659124e-03,-2.886542707206972e+01,-2.000988408832528e+00,7.618585112503453e+00,3.088477652754947e+01,
1089,1.239999999998908e-02,-3.000000000004472e-04,-4.392744149575200e-04,-2.667856871718748e-03,-2.289379841214379e+01,-4.269798740917270e-01,4.132600644998229e+00,2.393891157897366e+01,
1090,1.239999999998984e-02,-2.000000000005962e-04,-4.079839322208111e-04,-2.672825065527320e-03,-1.660747483387303e+01,8.686143994482403e-01,9.607941916636545e-01,1.758141623436366e+01,
1091,1.239999999999059e-02,-1.000000000006709e-04,-3.767086869065116e-04,-2.677810378587554e-03,-1.002742326933040e+01,1.894791915592313e+00,-1.886737958982101e+00,1.250513236311625e+01,
1092,1.239999999999135e-02,-7.454703087467207e-16,-3.454443992449195e-04,-2.682814379351621e-03,-3.174512392154836e+00,2.660495624854600e+00,-4.399972299068518e+00,1.055870936662458e+01,
1093,1.239999999999210e-02,9.999999999932917e-05,-3.141867584880857e-04,-2.687838529559347e-03,3.930490953785537e+00,3.174609698981380e+00,-6.568953119910876e+00,1.315963285345422e+01,
1094,1.239999999999286e-02,1.999999999994035e-04,-2.829314230434377e-04,-2.692884184584358e-03,1.126692527327618e+01,3.445955729222993e+00,-8.383787395925541e+00,1.850186825726871e+01,
1095,1.239999999999361e-02,2.999999999995527e-04,-2.516740205898531e-04,-2.697952593785580e-03,1.881423787964104e+01,3.483289341511341e+00,-9.834639531039747e+00,2.493829428611227e+01,
1096,1.239999999999437e-02,3.999999999997764e-04,-2.204101481760450e-04,-2.703044900861425e-03,2.655198831526653e+01,3.295297234825044e+00,-1.091172596891509e+01,3.189258118268057e+01,
1097,1.253333333332209e-02,-4.000000000002304e-04,-4.774505613689179e-04,-2.704639559536196e-03,-2.680459580800127e+01,-1.827585013160473e+00,7.020279585230214e+00,2.865289461930146e+01,
1098,1.253333333332282e-02,-3.000000000004608e-04,-4.461049054123326e-04,-2.709609552416995e-03,-2.130660213676340e+01,-3.378717842940605e-01,3.744011875790764e+00,2.226562714811371e+01,
1099,1.253333333332355e-02,-2.000000000006143e-04,-4.147777899372350e-04,-2.714593720814579e-03,-1.550306677491962e+01,8.824972302896583e-01,7.686157238479687e-01,1.645751464506702e+01,
1100,1.253333333332427e-02,-1.000000000006912e-04,-3.834651288805015e-04,-2.719593690801690e-03,-9.414875282807504e+00,1.842447636318679e+00,-1.895742796910204e+00,1.187866500553119e+01,
1101,1.253333333332500e-02,-7.680420427251533e-16,-3.521628046069137e-04,-2.724610981611690e-03,-3.062822710106119e+00,2.550855005220252e+00,-4.238965616043210e+00,1.016802318386117e+01,
1102,1.253333333332573e-02,9.999999999930885e-05,-3.208666680503679e-04,-2.729647005950853e-03,3.532389880954496e+00,3.016540759293546e+00,-6.251017908750598e+00,1.251267357115981e+01,
1103,1.253333333332645e-02,1.999999999993855e-04,-2.895725388395925e-04,-2.734703070318520e-03,1.035015884406968e+01,3.248268479751559e+00,-7.921923196463350e+00,1.736272776004540e+01,
1104,1.253333333332718e-02,2.999999999995391e-04,-2.582762054070196e-04,-2.739780375332536e-03,1.736998132452064e+01,3.254740630789009e+00,-9.241758307662021e+00,2.325683568998451e+01,
1105,1.253333333332791e-02,3.999999999997696e-04,-2.269734250805680e-04,-2.744880016057236e-03,2.457145858299218e+01,3.044595697376101e+00,-1.020064820075978e+01,2.965836678845904e+01,
1106,1.266666666665586e-02,-4.000000000002371e-04,-4.843209072330562e-04,-2.746424833942356e-03,-2.482116658031629e+01,-1.661287625715220e+00,6.444926978454374e+00,2.650525095565423e+01,
1107,1.266666666665655e-02,-3.000000000004743e-04,-4.529422860131174e-04,-2.751410980385966e-03,-1.977723204089429e+01,-2.543867624360100e-01,3.372411180617368e+00,2.065512324948057e+01,
1108,1.266666666665726e-02,-2.000000000006324e-04,-4.215812764471108e-04,-2.756410089403404e-03,-1.443695524854301e+01,8.922935291865209e-01,5.875272415121440e-01,1.537421936644582e+01,
1109,1.266666666665795e-02,-1.000000000007115e-04,-3.902339547876738e-04,-2.761423737185268e-03,-8.821145607654605e+00,1.787611797438820e+00,-1.899494893432440e+00,1.126845406792024e+01,
1110,1.266666666665865e-02,-7.906205529671639e-16,-3.588963653062988e-04,-2.766453393280945e-03,-2.950529427573851e+00,2.440380857433811e+00,-4.078488639870651e+00,9.777432794103838e+00,
1111,1.266666666665935e-02,9.999999999928856e-05,-3.275645204260357e-04,-2.771500420886074e-03,3.154253465865192e+00,2.859363795867507e+00,-5.939346233827961e+00,1.188235223592605e+01,
1112,1.266666666666005e-02,1.999999999993674e-04,-2.962344008394212e-04,-2.776566077137774e-03,9.472653058878198e+00,3.053270389566876e+00,-7.472014045978582e+00,1.626445355578414e+01,
1113,1.266666666666075e-02,2.999999999995255e-04,-2.649019556101538e-04,-2.781651513415037e-03,1.598421242786896e+01,3.030753939457565e+00,-8.666487755400313e+00,2.163848716682872e+01,
1114,1.266666666666145e-02,3.999999999997627e-04,-2.335631022584641e-04,-2.786757775641589e-03,2.266857097871913e+01,2.800408521531808e+00,-9.512807380967502e+00,2.750850589353676e+01,
1115,1.279999999998962e-02,-4.000000000002439e-04,-4.911946685104649e-04,-2.788256185367564e-03,-2.291496027061104e+01,-1.502252704596523e+00,5.892783787701046e+00,2.444184216424827e+01,
1116,1.279999999999029e-02,-3.000000000004879e-04,-4.597856954987126e-04,-2.793257428574252e-03,-1.830557209598008e+01,-1.766187016478483e-01,3.018006856477173e+00,1.910739157281399e+01,
1117,1.279999999999097e-02,-2.000000000006504e-04,-4.283934222172270e-04,-2.798270476522916e-03,-1.340908299442412e+01,8.979671606771535e-01,4.176845049167486e-01,1.433141742896262e+01,
1118,1.279999999999164e-02,-1.000000000007319e-04,-3.970140869874186e-04,-2.803296855106298e-03,-8.246231294371228e+00,1.730301064153137e+00,-1.897895087622153e+00,1.067423163301064e+01,
1119,1.279999999999231e-02,-8.131990632091746e-16,-3.656438957740201e-04,-2.808337983761367e-03,-2.837679295920017e+00,2.329137555331987e+00,-3.918502596740950e+00,9.386940224431171e+00,
1120,1.279999999999298e-02,9.999999999926818e-05,-3.342790223094175e-04,-2.813395175733045e-03,2.795990002103341e+00,2.703185662099459e+00,-5.633963228408364e+00,1.126830862559923e+01,
1121,1.279999999999365e-02,1.999999999993494e-04,-3.029156082038822e-04,-2.818469638345553e-03,8.634276132152168e+00,2.861105429841396e+00,-7.034152243661150e+00,1.520679752959288e+01,
1122,1.279999999999432e-02,2.999999999995120e-04,-2.715497630402339e-04,-2.823562473278793e-03,1.465676434014207e+01,2.811504871613463e+00,-8.108990340175655e+00,2.008315386648758e+01,
1123,1.279999999999499e-02,3.999999999997560e-04,-2.401775644527898e-04,-2.828674676847105e-03,2.084312872591478e+01,2.562937331894651e+00,-8.848438892436695e+00,2.544297311115100e+01,
1124,1.293333333332338e-02,-4.000000000002507e-04,-4.980711353900902e-04,-2.830129996268482e-03,-2.108581110389881e+01,-1.350624219590339e+00,5.364086713316810e+00,2.246266472239011e+01,
1125,1.293333333332403e-02,-3.000000000005013e-04,-4.666343158227574e-04,-2.835145312252894e-03,-1.689151545008620e+01,-1.046531528376447e-01,2.680991846871034e+00,1.762241796459104e+01,
1126,1.293333333332468e-02,-2.000000000006686e-04,-4.352133011008824e-04,-2.840171330089891e-03,-1.241939799306643e+01,8.994864144822046e-01,2.592324871924598e-01,1.332897174546132e+01,
1127,1.293333333332532e-02,-1.000000000007522e-04,-4.038044913830243e-04,-2.845209524993526e-03,-7.690130897382740e+00,1.670532848588449e+00,-1.890850314021993e+00,1.009570628560913e+01,
1128,1.293333333332596e-02,-8.358250072962314e-16,-3.724042541276197e-04,-2.850261265895117e-03,-2.724317049663546e+00,2.217186765288667e+00,-3.758969999337259e+00,8.996548325711228e+00,
1129,1.293333333332660e-02,9.999999999924785e-05,-3.410089242090874e-04,-2.855327815684275e-03,2.457513114073680e+00,2.548107272284631e+00,-5.334890388557148e+00,1.067016537515608e+01,
1130,1.293333333332725e-02,1.999999999993314e-04,-3.096148040204939e-04,-2.860410331457410e-03,7.834904731393013e+00,2.671908623581957e+00,-6.608421414627566e+00,1.418948424652936e+01,
1131,1.293333333332789e-02,2.999999999994984e-04,-2.782181635613186e-04,-2.865509864771146e-03,1.338748158859902e+01,2.597157285471376e+00,-7.569414710030682e+00,1.859073034542706e+01,
1132,1.293333333332854e-02,3.999999999997493e-04,-2.468152405101542e-04,-2.870627361897984e-03,1.909494916085246e+01,2.332369417487147e+00,-8.207759049426050e+00,2.346174149773247e+01,
1133,1.306666666665716e-02,-4.000000000002575e-04,-5.049496415912473e-04,-2.872042791018763e-03,-1.933356620488459e+01,-1.206534094390878e+00,4.859053500326419e+00,2.056771491466682e+01,
1134,1.306666666665777e-02,-3.000000000005150e-04,-4.734873726431261e-04,-2.877071188936759e-03,-1.553496412005090e+01,-3.856765322715466e-02,2.361544356647746e+00,1.620018118573514e+01,
1135,1.306666666665838e-02,-2.000000000006867e-04,-4.420400308161808e-04,-2.882109240601051e-03,-1.146785326026274e+01,8.968238039011233e-01,1.123057714616598e-01,1.236671699547921e+01,
1136,1.306666666665900e-02,-1.000000000007725e-04,-4.106041778895001e-04,-2.887158370199516e-03,-7.152844398093412e+00,1.608325217568279e+00,-1.878273425528553e+00,9.532561947272132e+00,
1137,1.306666666665962e-02,-8.584035175382421e-16,-3.791763426292476e-04,-2.892219895798239e-03,-2.610485439264213e+00,2.104587470326001e+00,-3.599854683230569e+00,8.606260947952936e+00,
1138,1.306666666666023e-02,9.999999999922759e-05,-3.477530208967008e-04,-2.897295029560900e-03,2.138741622397986e+00,2.394223741121088e+00,-5.042145820603317e+00,1.008752739861941e+01,
1139,1.306666666666085e-02,1.999999999993132e-04,-3.163306757435240e-04,-2.902384877975476e-03,7.074423730862527e+00,2.485806291411635e+00,-6.194896967036389e+00,1.321220661866970e+01,
1140,1.306666666666146e-02,2.999999999994850e-04,-2.849057374927685e-04,-2.907490442085708e-03,1.217621972338939e+01,2.387863643239717e+00,-7.047896353318635e+00,1.716109806452640e+01,
1141,1.306666666666208e-02,3.999999999997425e-04,-2.534746038055126e-04,-2.912612617724680e-03,1.742386326870949e+01,2.108878182754641e+00,-7.590965956169248e+00,2.156478204791093e+01,
1142,1.319999999999092e-02,-4.000000000002642e-04,-5.118295648252788e-04,-2.913991235867114e-03,-1.765808514952518e+01,-1.070102674232753e+00,4.377883770081354e+00,1.875698877266753e+01,
1143,1.319999999999150e-02,-3.000000000005285e-04,-4.803441357720883e-04,-2.919031758314990e-03,-1.423582865414273e+01,2.156794239654386e-02,2.059828464627384e+00,1.484065129722299e+01,
1144,1.319999999999209e-02,-2.000000000007046e-04,-4.488727733853992e-04,-2.924080941035704e-03,-1.055440664630673e+01,8.899558497011077e-01,-2.297105674820554e-02,1.144445471037494e+01,
1145,1.319999999999268e-02,-1.000000000007929e-04,-4.174122008627901e-04,-2.929140156875263e-03,-6.634373104855804e+00,1.543696807532073e+00,-1.860083013554257e+00,8.984456731553456e+00,
1146,1.319999999999327e-02,-8.809820277802527e-16,-3.859591081053357e-04,-2.934210672707101e-03,-2.496225250481012e+00,1.991395998457414e+00,-3.441121840626993e+00,8.216083164262889e+00,
1147,1.319999999999385e-02,9.999999999920722e-05,-3.545101518177506e-04,-2.939293649630829e-03,1.839599408223318e+00,2.241624525036023e+00,-4.755744482278537e+00,9.519981434721355e+00,
1148,1.319999999999445e-02,1.999999999992952e-04,-3.230619555964439e-04,-2.944390143178177e-03,6.352725961755933e+00,2.302916303382412e+00,-5.793646537411421e+00,1.227462093389824e+01,
1149,1.319999999999503e-02,2.999999999994713e-04,-2.916111100039703e-04,-2.949501103523498e-03,1.102284496003568e+01,2.183765376415682e+00,-6.544558249978593e+00,1.579412228124815e+01,
1150,1.319999999999561e-02,3.999999999997357e-04,-2.601541726297279e-04,-2.954627375696310e-03,1.582971522998174e+01,1.892623632296302e+00,-6.998240354379599e+00,1.975206304245059e+01,
1151,1.333333333332468e-02,-4.000000000002710e-04,-5.187103272192054e-04,-2.955972138902835e-03,-1.605923949487266e+01,-9.414391990005337e-01,3.920759842065485e+00,1.703048198796748e+01,
1152,1.333333333332524e-02,-3.000000000005421e-04,-4.872039195888445e-04,-2.961023862190100e-03,-1.299402779624938e+01,7.569111270139270e-02,1.775994728028804e+00,1.354378755942848e+01,
1153,1.333333333332581e-02,-2.000000000007228e-04,-4.557107355370167e-04,-2.966083306768230e-03,-9.679020608200481e+00,8.788628672444223e-01,-1.464830162237831e-01,1.056194738565008e+01,
1154,1.333333333332637e-02,-1.000000000008132e-04,-4.242276594919499e-04,-2.971151793855954e-03,-6.134719567889109e+00,1.476666719651260e+00,-1.836203228735222e+00,8.451021855789286e+00,
1155,1.333333333332692e-02,-9.035605380222633e-16,-3.927515423295590e-04,-2.976230538837258e-03,-2.381575327213809e+00,1.877666045971911e+00,-3.282738049210193e+00,7.826021561047884e+00,
1156,1.333333333332748e-02,9.999999999918692e-05,-3.612792014659150e-04,-2.981320651440543e-03,1.560015269056071e+00,2.090393559871798e+00,-4.475698420668964e+00,8.967095769672769e+00,
1157,1.333333333332804e-02,1.999999999992771e-04,-3.298074209382964e-04,-2.986423135924772e-03,5.669711962629993e+00,2.123348340267214e+00,-5.404730432220546e+00,1.137634120101457e+01,
1158,1.333333333332860e-02,2.999999999994577e-04,-2.983329514732688e-04,-2.991538891270104e-03,9.927233819743234e+00,1.984993264611409e+00,-6.059511510860975e+00,1.448964816814430e+01,
1159,1.333333333332916e-02,3.999999999997289e-04,-2.668525105416712e-04,-2.996668711370309e-03,1.431236193433458e+01,1.683752852922879e+00,-6.429746461509850e+00,1.802354919454844e+01,
1160,1.346666666665845e-02,-4.000000000002778e-04,-5.255913957030385e-04,-2.997982450028260e-03,-1.453691229543119e+01,-8.206422871352946e-01,3.487847545406497e+00,1.538818978764136e+01,
1161,1.346666666665898e-02,-3.000000000005556e-04,-4.940660834159903e-04,-3.003044484425274e-03,-1.180948813001582e+01,1.237463180597748e-01,1.510180784135902e+00,1.230953566938377e+01,
1162,1.346666666665952e-02,-2.000000000007409e-04,-4.625531690720479e-04,-3.008113355490052e-03,-8.841661997982694e+00,8.635287304053700e-01,-2.581243448791205e-01,9.718911450572371e+00,
1163,1.346666666666004e-02,-1.000000000008335e-04,-4.310496981559612e-04,-3.013190332557409e-03,-5.653887470444517e+00,1.407254424203390e+00,-1.806563602763924e+00,7.931860630374017e+00,
1164,1.346666666666058e-02,-9.261932583728982e-16,-3.995526823707386e-04,-3.018276579254227e-03,-2.266572598518600e+00,1.763448695553367e+00,-3.124671301545903e+00,7.436084628451439e+00,
1165,1.346666666666111e-02,9.999999999916657e-05,-3.680590997226733e-04,-3.023373153660010e-03,1.299922780089582e+00,1.940609406574286e+00,-4.202017003164983e+00,8.428420191999615e+00,
1166,1.346666666666164e-02,1.999999999992590e-04,-3.365658945955919e-04,-3.028481008474316e-03,5.025289715529657e+00,1.947204152001705e+00,-5.028202061081858e+00,1.051693275649657e+01,
1167,1.346666666666217e-02,2.999999999994444e-04,-3.050699778127950e-04,-3.033600991188464e-03,8.889272745225083e+00,1.791667808182853e+00,-5.592856009325075e+00,1.324749595985976e+01,
1168,1.346666666666270e-02,3.999999999997222e-04,-2.735682266865316e-04,-3.038733844258850e-03,1.287167248710235e+01,1.482400508388426e+00,-5.885632797107937e+00,1.637920052672561e+01,
1169,1.359999999999221e-02,-4.000000000002846e-04,-5.324722823622848e-04,-3.040019260937761e-03,-1.309099761064701e+01,-7.078004331193903e-01,3.079297026695074e+00,1.383010676213240e+01,
1170,1.359999999999272e-02,-3.000000000005692e-04,-5.009300318616018e-04,-3.045090750899464e-03,-1.068214372355162e+01,1.656846313589730e-01,1.262511942284676e+00,1.113782409787692e+01,
1171,1.359999999999322e-02,-2.000000000007589e-04,-4.693993711962564e-04,-3.050168247140651e-03,-8.042301819922763e+00,8.439406452453562e-01,-3.577981090210622e-01,8.915008866907163e+00,
1172,1.359999999999372e-02,-1.000000000008538e-04,-4.378775067467274e-04,-3.055252966882833e-03,-5.191881523404239e+00,1.335479653871235e+00,-1.771098866276824e+00,7.426547563647005e+00,
1173,1.359999999999423e-02,-9.486565721340823e-16,-4.063616109072811e-04,-3.060346021755735e-03,-2.151252092830865e+00,1.648792437987129e+00,-2.966891027686562e+00,7.046283269700973e+00,
1174,1.359999999999473e-02,9.999999999914620e-05,-3.748488221637975e-04,-3.065448417940321e-03,1.059260157668709e+00,1.792345396100990e+00,-3.934707145114161e+00,7.903486271137379e+00,
1175,1.359999999999524e-02,1.999999999992409e-04,-3.433362451614686e-04,-3.070561056318474e-03,4.419374385675855e+00,1.774577825761430e+00,-4.664108363862061e+00,9.695905123438827e+00,
1176,1.359999999999574e-02,2.999999999994307e-04,-3.118209507608283e-04,-3.075684732626766e-03,7.908857717822754e+00,1.603899616890446e+00,-5.144681006863795e+00,1.206745488096194e+01,
1177,1.359999999999624e-02,3.999999999997154e-04,-2.802999760819667e-04,-3.080820137611696e-03,1.150752771366426e+01,1.288689350611586e+00,-5.366033001876961e+00,1.481897088866591e+01,
1178,1.373333333332598e-02,-4.000000000002914e-04,-5.393525447573058e-04,-3.082079805102884e-03,-1.172140000598227e+01,-6.029925162375241e-01,2.695243545091813e+00,1.235622661565611e+01,
1179,1.373333333332646e-02,-3.000000000005827e-04,-5.077952151284144e-04,-3.087159929469829e-03,-9.611935753087749e+00,2.014633753829120e-01,1.033101777632398e+00,1.002855919793355e+01,
1180,1.373333333332694e-02,-2.000000000007770e-04,-4.762486848198925e-04,-3.092245283847110e-03,-7.280915002415182e+00,8.200889051563715e-01,-4.454158203148924e-01,8.149837134718506e+00,
1181,1.373333333332741e-02,-1.000000000008742e-04,-4.447103209599843e-04,-3.097337033139262e-03,-4.748707368757207e+00,1.261362286161079e+00,-1.729748769668825e+00,6.934627638284039e+00,
1182,1.373333333332788e-02,-9.713367263297634e-16,-4.131774565098360e-04,-3.102436236764978e-03,-2.035646953926676e+00,1.533743189793938e+00,-2.809368118028085e+00,6.656631497120786e+00,
1183,1.373333333332836e-02,9.999999999912588e-05,-3.816473903343607e-04,-3.107543848783570e-03,8.379701096811788e-01,1.645669766347236e+00,-3.673773532931967e+00,7.391808075191359e+00,
1184,1.373333333332884e-02,1.999999999992229e-04,-3.501173872636583e-04,-3.112660718027852e-03,3.851888055507218e+00,1.605556052072906e+00,-4.312490233487377e+00,8.912704164581548e+00,
1185,1.373333333332931e-02,2.999999999994173e-04,-3.185846781433503e-04,-3.117787588241037e-03,6.985893875403669e+00,1.421789806178774e+00,-4.715065770500866e+00,1.094927554561309e+01,
1186,1.373333333332979e-02,3.999999999997085e-04,-2.870464598738087e-04,-3.122925098214852e-03,1.021981963947770e+01,1.102730732471435e+00,-4.871066648729423e+00,1.334280597639466e+01,
1187,1.386666666665975e-02,-4.000000000002981e-04,-5.462317862110308e-04,-3.124161457763101e-03,-1.042803403197742e+01,-5.062883051467137e-01,2.335808264484408e+00,1.096654180959604e+01,
1188,1.386666666666020e-02,-3.000000000005963e-04,-5.146611292918361e-04,-3.129249429941034e-03,-8.598812141044087e+00,2.310457383466972e-01,8.220527169728956e-01,8.981618609592015e+00,
1189,1.386666666666065e-02,-2.000000000007951e-04,-4.831004988265545e-04,-3.134341909871710e-03,-6.557480160353223e+00,7.919666486824957e-01,-5.208970478116115e-01,7.422917441041678e+00,
1190,1.386666666666109e-02,-1.000000000008945e-04,-4.515474225556168e-04,-3.139440009963331e-03,-4.324371457219740e+00,1.184922234853246e+00,-1.682457890974932e+00,6.455615788221172e+00,
1191,1.386666666666153e-02,-9.939152365717741e-16,-4.199993938936895e-04,-3.144544737234373e-03,-1.919788451034927e+00,1.418344305063100e+00,-2.652074935146366e+00,6.267147368927990e+00,
1192,1.386666666666199e-02,9.999999999910563e-05,-3.884538719938549e-04,-3.149656993424416e-03,6.359997117868565e-01,1.500645810024818e+00,-3.419218841475857e+00,6.892883490877540e+00,
1193,1.386666666666243e-02,1.999999999992048e-04,-3.569082818029399e-04,-3.154777575111254e-03,3.322759470203951e+00,1.440218400077134e+00,-3.973382935215510e+00,8.166703660606371e+00,
1194,1.386666666666288e-02,2.999999999994036e-04,-3.253600141064300e-04,-3.159907173831910e-03,6.120295110211420e+00,1.245430390139747e+00,-4.304080189753829e+00,9.892660469172331e+00,
1195,1.386666666666333e-02,3.999999999997018e-04,-2.938064255629691e-04,-3.165046376204655e-03,9.008450966448471e+00,9.246251291861458e-01,-4.400840047625064e+00,1.195064068016072e+01,
1196,1.399999999999352e-02,-4.000000000003050e-04,-5.531096560667070e-04,-3.166261735921860e-03,-9.210823691829376e+00,-4.177489602124894e-01,2.001099027639612e+00,9.661043034242223e+00,
1197,1.399999999999393e-02,-3.000000000006098e-04,-5.215273165483607e-04,-3.171356804040978e-03,-7.642727189210225e+00,2.544004061431813e-01,6.294566205658724e-01,7.996842302183351e+00,
1198,1.399999999999436e-02,-2.000000000008131e-04,-4.899542483128836e-04,-3.176455711567135e-03,-5.871979380395850e+00,7.595696060264967e-01,-5.841690203547254e-01,6.733680697559699e+00,
1199,1.399999999999477e-02,-1.000000000009149e-04,-4.583881395891383e-04,-3.181559518255750e-03,-3.918880955099627e+00,1.106179317888884e+00,-1.629175435699141e+00,5.988996672925215e+00,
1200,1.399999999999519e-02,-1.016493746813785e-15,-4.268266441425881e-04,-3.186669178559210e-03,-1.803705989067764e+00,1.302636570191313e+00,-2.494985316574295e+00,5.877854286655086e+00,
1201,1.399999999999561e-02,9.999999999908526e-05,-3.952673813329599e-04,-3.191785541722887e-03,4.533002975610639e-01,1.357332008181259e+00,-3.171043946948231e+00,6.406196390036364e+00,
1202,1.399999999999603e-02,1.999999999991867e-04,-3.637079361635975e-04,-3.196909351887468e-03,2.831923792644054e+00,1.278637586354007e+00,-3.646816530534164e+00,7.457196609193020e+00,
1203,1.399999999999645e-02,2.999999999993900e-04,-3.321458593210595e-04,-3.202041248195169e-03,5.311983682626148e+00,1.074904688842236e+00,-3.911785397899033e+00,8.897252294749727e+00,
1204,1.399999999999687e-02,3.999999999996951e-04,-3.005786672052092e-04,-3.207181764896845e-03,7.873334519203638e+00,7.544626633753269e-01,-3.955447051912768e+00,1.064239550203083e+01,
1205,1.413333333332728e-02,-4.000000000003116e-04,-5.599858499172297e-04,-3.208378298347453e-03,-8.069701910643476e+00,-3.374275230615320e-01,1.691211113966151e+00,8.439718439193706e+00,
1206,1.413333333332767e-02,-3.000000000006235e-04,-5.283933654361512e-04,-3.213479745402464e-03,-6.743641247917600e+00,2.715011948339891e-01,4.553953639423354e-01,7.074020302635229e+00,
1207,1.413333333332806e-02,-2.000000000008312e-04,-4.968094148008117e-04,-3.218584417338582e-03,-5.224398038515654e+00,7.228958473660495e-01,-6.351662128698721e-01,6.081451227867548e+00,
1208,1.413333333332845e-02,-1.000000000009352e-04,-4.652318466159648e-04,-3.223693321123775e-03,-3.532243659184388e+00,1.025153114522750e+00,-1.569854999806831e+00,5.534224808830072e+00,
1209,1.413333333332885e-02,-1.039099362110107e-15,-4.336584749054595e-04,-3.228807358500556e-03,-1.687427076798516e+00,1.186658191629481e+00,-2.338074545016487e+00,5.488782783314625e+00,
1210,1.413333333332923e-02,9.999999999906498e-05,-4.020870791634302e-04,-3.233927326067748e-03,2.898273928826348e-01,1.215782147619596e+00,-2.929248129448643e+00,5.931219994514913e+00,
1211,1.413333333332963e-02,1.999999999991687e-04,-3.705154043973074e-04,-3.239053915369020e-03,2.379322415871416e+00,1.120879746212827e+00,-3.332816310108534e+00,6.783386778042313e+00,
1212,1.413333333333002e-02,2.999999999993765e-04,-3.389411611619253e-04,-3.244187712985618e-03,4.560889841489858e+00,9.102877388276107e-01,-3.538234412738088e+00,7.962619339758632e+00,
1213,1.413333333333041e-02,3.999999999996883e-04,-3.073620255855076e-04,-3.249329200630136e-03,6.814392662680811e+00,5.923236310053750e-01,-3.534969869714877e+00,9.417971700642479e+00,
1214,1.426666666666105e-02,-4.000000000003184e-04,-5.668601098076110e-04,-3.250508945578403e-03,-7.004609968225483e+00,-2.653693624508777e-01,1.406227958350341e+00,7.302552445953807e+00,
1215,1.426666666666141e-02,-3.000000000006369e-04,-5.352589110296445e-04,-3.255616089550219e-03,-5.901520456558261e+00,2.823267039673724e-01,2.999414214394958e-01,6.212875753620182e+00,
1216,1.426666666666177e-02,-2.000000000008492e-04,-5.036655264243959e-04,-3.260725897612065e-03,-4.614724692634055e+00,6.819455275974493e-01,-6.738298857601102e-01,5.465427913865590e+00,
1217,1.426666666666214e-02,-1.000000000009555e-04,-4.720779648702911e-04,-3.265839323830859e-03,-3.164467923417082e+00,9.418628072624143e-01,-1.504454274196736e+00,5.090725166645526e+00,
1218,1.426666666666250e-02,-1.061701589274641e-15,-4.404942005675655e-04,-3.270957217116580e-03,-1.570977278178852e+00,1.070444736374209e+00,-2.181319275424330e+00,5.099973076822705e+00,
1219,1.426666666666287e-02,9.999999999904455e-05,-4.089121730822740e-04,-3.276080321289820e-03,1.455407297710851e-01,1.076045403374659e+00,-2.693829261033874e+00,5.467421997432366e+00,
1220,1.426666666666323e-02,1.999999999991505e-04,-3.773297873816214e-04,-3.281209275157441e-03,1.964902845937370e+00,9.670046803589257e-01,-3.031403250516334e+00,6.144381451198225e+00,
1221,1.426666666666359e-02,2.999999999993628e-04,-3.457449138615394e-04,-3.286344612593910e-03,3.866951491448348e+00,7.516467166741161e-01,-3.183472819680940e+00,7.088238188317348e+00,
1222,1.426666666666396e-02,3.999999999996814e-04,-3.141553883686923e-04,-3.291486762623933e-03,5.831556660259658e+00,4.382790385860239e-01,-3.139479898298380e+00,8.277244688404714e+00,
1223,1.439999999999481e-02,-4.000000000003251e-04,-5.737322244120019e-04,-3.292651619932611e-03,-6.015496972214171e+00,-2.016126176556891e-01,1.146221825332122e+00,6.249523916239596e+00,
1224,1.439999999999515e-02,-3.000000000006505e-04,-5.421236351102550e-04,-3.297763813892360e-03,-5.116336593001624e+00,2.868599557286944e-01,1.631584666373444e-01,5.413041260248533e+00,
1225,1.439999999999548e-02,-2.000000000008673e-04,-5.105221580933202e-04,-3.302878164807845e-03,-4.042951015524073e+00,6.367206344248002e-01,-7.001075731562143e-01,4.884662650306359e+00,
1226,1.439999999999582e-02,-1.000000000009758e-04,-4.789259624205267e-04,-3.307995573752516e-03,-2.815562583929412e+00,8.563270114192454e-01,-1.432934696632282e+00,4.657894436296333e+00,
1227,1.439999999999615e-02,-1.084334309625276e-15,-4.473331823976305e-04,-3.313116836701558e-03,-1.454380117344009e+00,9.540290460976094e-01,-2.024697416705963e+00,4.711478877742397e+00,
1228,1.439999999999649e-02,9.999999999902425e-05,-4.157419176114034e-04,-3.318242644584525e-03,2.040430731140541e-02,9.381663653762679e-01,-2.464783969420574e+00,5.014272355873184e+00,
1229,1.439999999999682e-02,1.999999999991324e-04,-3.841502329538916e-04,-3.323373583349466e-03,1.588618685224804e+00,8.170660806054780e-01,-2.742594478054878e+00,5.539186881296144e+00,
1230,1.439999999999716e-02,2.999999999993494e-04,-3.525561586406572e-04,-3.328510134035729e-03,3.230113943409178e+00,5.990413891367372e-01,-2.847539497849608e+00,6.273473324490994e+00,
1231,1.439999999999750e-02,3.999999999996747e-04,-3.209576902280603e-04,-3.333652672849358e-03,4.924765998756240e+00,2.923911831060431e-01,-2.769038582511532e+00,7.220055063392528e+00,
1232,1.453333333332857e-02,-4.000000000003320e-04,-5.806020291863610e-04,-3.334804405518358e-03,-5.102319469673628e+00,-1.461888572322950e-01,9.112544904251519e-01,5.280603150479888e+00,
1233,1.453333333332888e-02,-3.000000000006640e-04,-5.489872663148801e-04,-3.339921037714326e-03,-4.388066909183377e+00,2.850878995945354e-01,4.510203009596064e-02,4.674025314360122e+00,
1234,1.453333333332919e-02,-2.000000000008854e-04,-5.173789316348860e-04,-3.345039373317946e-03,-3.509071480962917e+00,5.872247397250204e-01,-7.139526028564660e-01,4.338035961598793e+00,
1235,1.453333333332950e-02,-1.000000000009961e-04,-4.857753543030233e-04,-3.350160260338460e-03,-2.485536655471598e+00,7.685637228986274e-01,-1.355261227975662e+00,4.235103452895294e+00,
1236,1.453333333332981e-02,-1.106855221626873e-15,-4.541748286728068e-04,-3.355284441732994e-03,-1.337657078817920e+00,8.374412219183580e-01,-1.868188123295571e+00,4.323373691222673e+00,
1237,1.453333333333012e-02,9.999999999900391e-05,-4.225756143144209e-04,-3.360412555443823e-03,-8.561384691728977e-02,8.021850377897489e-01,-2.242107786814436e+00,4.571255426079664e+00,
1238,1.453333333333042e-02,1.999999999991145e-04,-3.909759360217570e-04,-3.365545134453262e-03,1.250429398203438e+00,6.711116695867948e-01,-2.466403623886988e+00,4.966708807085535e+00,
1239,1.453333333333073e-02,2.999999999993358e-04,-3.593739838156700e-04,-3.370682606851775e-03,2.650329764129105e+00,4.525245966783268e-01,-2.530467258164233e+00,5.517554325300131e+00,
1240,1.453333333333104e-02,3.999999999996680e-04,-3.277679129531382e-04,-3.375825295911630e-03,4.093967884422784e+00,1.547144145100929e-01,-2.423698241183276e+00,6.246196487261571e+00,
1241,1.466666666666235e-02,-4.000000000003387e-04,-5.874694064967122e-04,-3.376965528240623e-03,-4.265041595067480e+00,-9.912480639358141e-02,7.013782493444788e-01,4.395746635643272e+00,
1242,1.466666666666262e-02,-3.000000000006777e-04,-5.558495802617040e-04,-3.382086022170667e-03,-3.716693271037388e+00,2.770002079873856e-01,-5.417970153065443e-02,3.995163246306314e+00,
1243,1.466666666666290e-02,-2.000000000009035e-04,-5.242355159132749e-04,-3.387207819487726e-03,-3.013081485720101e+00,5.334627622772786e-01,-7.153241151154556e-01,3.824229394488011e+00,
1244,1.466666666666318e-02,-1.000000000010165e-04,-4.926257026346045e-04,-3.392331715085434e-03,-2.174398099872378e+00,6.785907803411206e-01,-1.271403100252169e+00,3.821702359413300e+00,
1245,1.466666666666346e-02,-1.129487941977508e-15,-4.610185947851703e-04,-3.397458398832476e-03,-1.220828176266419e+00,7.207092141103062e-01,-1.711772572117330e+00,3.935762796821423e+00,
1246,1.466666666666374e-02,9.999999999898361e-05,-4.294126118961479e-04,-3.402588455600134e-03,-1.725436436923822e-01,6.681370878411521e-01,-2.025795374941278e+00,4.137889763745001e+00,
1247,1.466666666666402e-02,1.999999999990964e-04,-3.978061386544110e-04,-3.407722365312919e-03,9.502986237444826e-01,5.291832797470406e-01,-2.202840581352675e+00,4.425761475765142e+00,
1248,1.466666666666430e-02,2.999999999993222e-04,-3.661975248838035e-04,-3.412860503013433e-03,2.127558568717755e+00,3.121427974527611e-01,-2.232282770695721e+00,4.819551835589854e+00,
1249,1.466666666666458e-02,3.999999999996613e-04,-3.345850855358678e-04,-3.418003138937535e-03,3.339117790404085e+00,2.529646553624210e-02,-2.103502541666954e+00,5.355399475701716e+00,
1250,1.479999999999611e-02,-4.000000000003456e-04,-5.943342857208969e-04,-3.419133355783870e-03,-3.503636817498034e+00,-6.044781837230508e-02,5.166384485633331e-01,3.594886873023427e+00,
1251,1.479999999999636e-02,-3.000000000006911e-04,-5.627103996434514e-04,-3.424257170264360e-03,-3.102197839662359e+00,2.625857902614135e-01,-1.346447828348127e-01,3.375542289230211e+00,
1252,1.479999999999661e-02,-2.000000000009214e-04,-5.310916269127781e-04,-3.429381941607840e-03,-2.554969851511322e+00,4.754406561622646e-01,-7.041892853953882e-01,3.341693888386720e+00,
1253,1.479999999999686e-02,-1.000000000010368e-04,-4.994766166984318e-04,-3.434508411541042e-03,-1.882149532724591e+00,5.864281304232474e-01,-1.181338332128467e+00,3.417033318365028e+00,
1254,1.479999999999712e-02,-1.152063064087730e-15,-4.678639833389815e-04,-3.439637216762752e-03,-1.103914825375933e+00,6.038616758031559e-01,-1.555437786458205e+00,3.548809294417987e+00,
1255,1.479999999999736e-02,9.999999999896322e-05,-4.362523063044869e-04,-3.444768888994342e-03,-2.404210884571316e-01,5.360554860604968e-01,-1.815841200677773e+00,3.713762638496195e+00,
1256,1.479999999999762e-02,1.999999999990782e-04,-4.046401301720962e-04,-3.449903855037270e-03,6.881867731638780e-01,3.913170382080119e-01,-1.951909143011528e+00,3.915089890388312e+00,
1257,1.479999999999787e-02,2.999999999993087e-04,-3.730259645909816e-04,-3.455042436818983e-03,1.661765713267776e+00,1.779365428573894e-01,-1.953003654692802e+00,4.178353995048114e+00,
1258,1.479999999999812e-02,3.999999999996544e-04,-3.414082842288784e-04,-3.460184851450550e-03,2.660183809749206e+00,-9.581871715552032e-02,-1.808485522198845e+00,4.547310135048692e+00,
1259,1.493333333332988e-02,-4.000000000003523e-04,-6.011966433183075e-04,-3.461306397523569e-03,-2.818093528826436e+00,-3.020182719153582e-02,3.570810015609104e-01,2.877910267320320e+00,
1260,1.493333333333010e-02,-3.000000000007048e-04,-5.695695942498935e-04,-3.466433026794253e-03,-2.544547263576825e+00,2.418229746352833e-01,-1.962559648896820e-01,2.813880722314527e+00,
1261,1.493333333333032e-02,-2.000000000009396e-04,-5.379470277353803e-04,-3.471560319944535e-03,-2.134694814102990e+00,4.131648305052959e-01,-6.805326199136755e-01,2.888613396716449e+00,
1262,1.493333333333055e-02,-1.000000000010571e-04,-5.063277529795316e-04,-3.476688965402730e-03,-1.608775854866721e+00,4.921049769387282e-01,-1.085069657912157e+00,3.020464354951732e+00,
1263,1.493333333333077e-02,-1.174638186197952e-15,-4.747105442628395e-04,-3.481819546528163e-03,-9.869495469444898e-01,4.869376980907724e-01,-1.399189594313614e+00,3.162794601996724e+00,
1264,1.493333333333099e-02,9.999999999894296e-05,-4.430941408952733e-04,-3.486952541803753e-03,-2.893143549037730e-01,4.059770360081869e-01,-1.612241866980231e+00,3.298594468686912e+00,
1265,1.493333333333122e-02,1.999999999990603e-04,-4.114772472936271e-04,-3.492088324924452e-03,4.640264017230509e-01,2.575445934423424e-01,-1.713598562695214e+00,3.433411550256579e+00,
1266,1.493333333333144e-02,2.999999999992952e-04,-3.798585330044305e-04,-3.497227164740722e-03,1.252916343325368e+00,4.994042964432349e-02,-1.692626892750663e+00,3.592644463504258e+00,
1267,1.493333333333167e-02,3.999999999996476e-04,-3.482366325547364e-04,-3.502369225190984e-03,2.057162045617678e+00,-2.085848277582721e-01,-1.538666034968477e+00,3.821463275091801e+00,
1268,1.506666666666364e-02,-4.000000000003591e-04,-6.080565028598514e-04,-3.503483304263841e-03,-2.208428406270684e+00,-8.488277566311223e-03,2.227734401254232e-01,2.244604328692493e+00,
1269,1.506666666666384e-02,-3.000000000007182e-04,-5.764270808084315e-04,-3.508612278246257e-03,-2.043644840408454e+00,2.146552590444625e-01,-2.389790445433343e-01,2.308324776566857e+00,
1270,1.506666666666403e-02,-2.000000000009577e-04,-5.448015283693010e-04,-3.513741676897472e-03,-1.752119644915405e+00,3.466405516624539e-01,-6.443842186874913e-01,2.462867931480186e+00,
1271,1.506666666666423e-02,-1.000000000010775e-04,-5.131788150781556e-04,-3.518872134880522e-03,-1.354213836895948e+00,3.956781726244888e-01,-9.826693437598191e-01,2.631478330073209e+00,
1272,1.506666666666442e-02,-1.197216696439962e-15,-4.815578749942778e-04,-3.524004181745574e-03,-8.700030094991474e-01,3.700138448583694e-01,-1.243088664508833e+00,2.778258359190543e+00,
1273,1.506666666666462e-02,9.999999999892259e-05,-4.499376068219209e-04,-3.529138242620741e-03,-3.193931532190190e-01,2.779629915389719e-01,-1.415003253217079e+00,2.892364290704025e+00,
1274,1.506666666666482e-02,1.999999999990422e-04,-4.183168745132162e-04,-3.534274638366381e-03,2.776538961885343e-01,1.278986473531205e-01,-1.487860545495666e+00,2.979486976968417e+00,
1275,1.506666666666501e-02,2.999999999992816e-04,-3.866945076674745e-04,-3.539413585135689e-03,9.009542482366925e-01,-7.181935169229282e-02,-1.451094905044043e+00,3.060881273505707e+00,
1276,1.506666666666521e-02,3.999999999996409e-04,-3.550693012140347e-04,-3.544555193793361e-03,1.530118939835199e+00,-3.129412866866936e-01,-1.294030145654320e+00,3.177251496189040e+00,
1277,1.519999999999740e-02,-4.000000000003660e-04,-6.149139350241534e-04,-3.545662867634411e-03,-1.674709537458184e+00,4.445244486953069e-03,1.138568276209108e-01,1.694524797845347e+00,
1278,1.519999999999757e-02,-3.000000000007319e-04,-5.832828223734564e-04,-3.550793752640231e-03,-1.599207846514963e+00,1.809408393427815e-01,-2.627841781483609e-01,1.856111914972127e+00,
1279,1.519999999999774e-02,-2.000000000009757e-04,-5.516549848872215e-04,-3.555924877523088e-03,-1.406867324775497e+00,2.758672628753965e-01,-5.958905842678484e-01,2.062022804469663e+00,
1280,1.519999999999791e-02,-1.000000000010978e-04,-5.200295533238493e-04,-3.561056821689292e-03,-1.118291295386872e+00,2.972708183282050e-01,-8.743847822199982e-01,2.249891350109412e+00,
1281,1.519999999999808e-02,-1.219847722724703e-15,-4.884056208530652e-04,-3.566190059629217e-03,-7.532470325619096e-01,2.532672195991751e-01,-1.087334505646319e+00,2.396300533839587e+00,
1282,1.519999999999824e-02,9.999999999890229e-05,-4.567822440143030e-04,-3.571324962967143e-03,-3.310832009689877e-01,1.521541416501936e-01,-1.224159728924054e+00,2.495553344847451e+00,
1283,1.519999999999841e-02,1.999999999990240e-04,-4.251584451256280e-04,-3.576461800717459e-03,1.286496318262620e-01,2.432159539231538e-03,-1.274557772798143e+00,2.552238412670568e+00,
1284,1.519999999999858e-02,2.999999999992681e-04,-3.935332140622737e-04,-3.581600737666572e-03,6.057394458649917e-01,-1.873348043689820e-01,-1.228213927438711e+00,2.581279638590494e+00,
1285,1.519999999999875e-02,3.999999999996340e-04,-3.619055077904542e-04,-3.586741832189825e-03,1.079286703519202e+00,-4.087968932130287e-01,-1.074486685810579e+00,2.613901173112775e+00,
1286,1.533333333333117e-02,-4.000000000003727e-04,-6.217690576353752e-04,-3.587844019035225e-03,-1.217074323200366e+00,8.056670985388259e-03,3.065289369699114e-02,1.226663911787810e+00,
1287,1.533333333333131e-02,-3.000000000007453e-04,-5.901368267379211e-04,-3.592976419567744e-03,-1.210501454643196e+00,1.403756705179236e-01,-2.676618788158954e-01,1.453079671858563e+00,
1288,1.533333333333145e-02,-2.000000000009938e-04,-5.585072974182047e-04,-3.598108930945492e-03,-1.098063414888869e+00,2.008269843361777e-01,-5.354614341416482e-01,1.683446482372138e+00,
1289,1.533333333333159e-02,-1.000000000011181e-04,-5.268797637428037e-04,-3.603242073285155e-03,-9.006445467119939e-01,1.971297422266279e-01,-7.608373566209756e-01,1.876326816515361e+00,
1290,1.533333333333173e-02,-1.242370328792194e-15,-4.952534757699895e-04,-3.608376263083971e-03,-6.370725481576860e-01,1.370934852572234e-01,-9.324226814448729e-01,2.019153603563821e+00,
1291,1.533333333333188e-02,9.999999999888198e-05,-4.636276433968968e-04,-3.613511818426346e-03,-3.253309292763424e-01,2.889561356700464e-02,-1.039818066665918e+00,2.109588322567733e+00,
1292,1.533333333333201e-02,1.999999999990060e-04,-4.320014437409899e-04,-3.618648959149949e-03,1.603610960310155e-02,-1.187252896068604e-01,-1.073376646773189e+00,2.150978925528851e+00,
1293,1.533333333333215e-02,2.999999999992545e-04,-4.003740269459434e-04,-3.623787802303359e-03,3.668894397960109e-01,-2.966465441887144e-01,-1.023494892629310e+00,2.151847388407392e+00,
1294,1.533333333333229e-02,3.999999999996273e-04,-3.687445161286231e-04,-3.628928355693945e-03,7.052299485261471e-01,-4.960301845843285e-01,-8.797761765813946e-01,2.130504726800977e+00,
1295,1.546666666666493e-02,-4.000000000003794e-04,-6.286220360816877e-04,-3.630025828763199e-03,-8.356467914950063e-01,1.403215259290505e-03,-2.617314173766531e-02,8.386851895682003e-01,
1296,1.546666666666505e-02,-3.000000000007590e-04,-5.969891431499105e-04,-3.635159391415789e-03,-8.759082201983015e-01,9.246160511693743e-02,-2.536931957732143e-01,1.093243371307401e+00,
1297,1.546666666666516e-02,-2.000000000010119e-04,-5.653584060966565e-04,-3.640292993587212e-03,-8.240975159984282e-01,1.214508908688142e-01,-4.639858553882689e-01,1.324837078938657e+00,
1298,1.546666666666527e-02,-1.000000000011384e-04,-5.337292859236123e-04,-3.645427086752515e-03,-7.007229452442438e-01,9.565298045636911e-02,-6.432596524079237e-01,1.513058669285286e+00,
1299,1.546666666666538e-02,-1.264999661011040e-15,-5.021011833992207e-04,-3.650562023985734e-03,-5.222252148392341e-01,2.224256450420167e-02,-7.793255552897000e-01,1.651011340740448e+00,
1300,1.546666666666550e-02,9.999999999886166e-05,-4.704734509575769e-04,-3.655698070443916e-03,-3.038385248834968e-01,-9.105090719699543e-02,-8.622394577471681e-01,1.737557509904411e+00,
1301,1.546666666666561e-02,1.999999999989879e-04,-4.388454114895600e-04,-3.660835402762134e-03,-6.207077602310713e-02,-2.352238189864506e-01,-8.837578152366377e-01,1.775976767937803e+00,
1302,1.546666666666572e-02,2.999999999992410e-04,-4.072163737344044e-04,-3.665974098269379e-03,1.834470202561041e-01,-3.999101884502289e-01,-8.359520778744796e-01,1.770753833529744e+00,
1303,1.546666666666583e-02,3.999999999996205e-04,-3.755856354972402e-04,-3.671114119473914e-03,4.089863982811776e-01,-5.746063675918485e-01,-7.093360403588423e-01,1.726292327992450e+00,
1304,1.559999999999870e-02,-4.000000000003863e-04,-6.354730851403583e-04,-3.672207509007026e-03,-5.301165641746766e-01,-1.639141648019415e-02,-5.556396156754312e-02,5.256072133009927e-01,
1305,1.559999999999879e-02,-3.000000000007724e-04,-6.038398576127428e-04,-3.677341929142845e-03,-5.927714312562584e-01,3.677539449254408e-02,-2.212225030933972e-01,7.694717599171693e-01,
1306,1.559999999999887e-02,-2.000000000010299e-04,-5.722082855700526e-04,-3.682476374817148e-03,-5.830972770517406e-01,3.761913560269532e-02,-3.828688510104816e-01,9.857195814403494e-01,
1307,1.559999999999896e-02,-1.000000000011588e-04,-5.405779999242376e-04,-3.687611212340773e-03,-5.182732684186435e-01,-6.826793942384918e-03,-5.232970787548289e-01,1.164876313943907e+00,
1308,1.559999999999904e-02,-1.287576477187156e-15,-5.089485376084367e-04,-3.692746724626102e-03,-4.096789834951329e-01,-9.030784138065823e-02,-6.293236563206299e-01,1.298534167449809e+00,
1309,1.559999999999912e-02,9.999999999884136e-05,-4.773193723556824e-04,-3.697883127280879e-03,-2.684859290802186e-01,-2.063841394446453e-01,-6.919129239753132e-01,1.385218614418753e+00,
1310,1.559999999999921e-02,1.999999999989698e-04,-4.456899538135181e-04,-3.703020563764776e-03,-1.081941302134339e-01,-3.462864464503493e-01,-7.051344641750564e-01,1.430225996589642e+00,
1311,1.559999999999929e-02,2.999999999992274e-04,-4.140597417351246e-04,-3.708159085789586e-03,5.351640300479407e-02,-4.974579225203407e-01,-6.642062287961167e-01,1.438141983558687e+00,
1312,1.559999999999937e-02,3.999999999996138e-04,-3.824282209318935e-04,-3.713298621976837e-03,1.916750669727048e-01,-6.450732841193950e-01,-5.623105093510358e-01,1.401756126707436e+00,
1313,1.573333333333247e-02,-4.000000000003931e-04,-6.423224759843181e-04,-3.714388435104495e-03,-2.990001736226759e-01,-4.354637348105545e-02,-5.681752207465404e-02,2.795882101691882e-01,
1314,1.573333333333253e-02,-3.000000000007861e-04,-6.106890930939828e-04,-3.719523459731130e-03,-3.600046414105104e-01,-2.578498547441891e-02,-1.710179170825635e-01,4.782167816660909e-01,
1315,1.573333333333258e-02,-2.000000000010480e-04,-5.790569455452078e-04,-3.724658541944568e-03,-3.764902426712641e-01,-5.087145858548400e-02,-2.925707096147422e-01,6.696402564417681e-01,
1316,1.573333333333264e-02,-1.000000000011791e-04,-5.474258252836185e-04,-3.729793944194131e-03,-3.543804918415818e-01,-1.104277997553005e-01,-4.007375712914836e-01,8.377799950789776e-01,
1317,1.573333333333269e-02,-1.310179551384637e-15,-5.157953777789731e-04,-3.734929883614508e-03,-2.992796799313261e-01,-2.007092595152422e-01,-4.821971542842776e-01,9.694186454676974e-01,
1318,1.573333333333275e-02,9.999999999882098e-05,-4.841651681473254e-04,-3.740066535992157e-03,-2.183470683039111e-01,-3.168211917271865e-01,-5.292351664852494e-01,1.063041202758699e+00,
1319,1.573333333333280e-02,1.999999999989518e-04,-4.525347430235671e-04,-3.745204021776648e-03,-1.218032952714726e-01,-4.508066220250767e-01,-5.382188243835686e-01,1.125593710313922e+00,
1320,1.573333333333286e-02,2.999999999992139e-04,-4.209036884483585e-04,-3.750342380133977e-03,-2.467053814090812e-02,-5.895004065527174e-01,-5.083813617538468e-01,1.163116166238302e+00,
1321,1.573333333333292e-02,3.999999999996070e-04,-3.892716803796868e-04,-3.755481526082088e-03,5.237232204968262e-02,-7.097661036003104e-01,-4.386499679306063e-01,1.162114519879318e+00,
1322,1.586666666666623e-02,-4.000000000003998e-04,-6.491705620290695e-04,-3.756568222921416e-03,-1.442521850883486e-01,-6.829500527293013e-02,-3.302211806035101e-02,1.006545294076668e-01,
1323,1.586666666666626e-02,-3.000000000007995e-04,-6.175370463697263e-04,-3.761703617683986e-03,-1.940441919166121e-01,-9.196361455847959e-02,-1.016632245327699e-01,2.275128329641456e-01,
1324,1.586666666666629e-02,-2.000000000010661e-04,-5.859044656235468e-04,-3.766839098055070e-03,-2.158633362586947e-01,-1.407847512950812e-01,-1.855203082674787e-01,3.785603426651817e-01,
1325,1.586666666666632e-02,-1.000000000011995e-04,-5.542727290609642e-04,-3.771974857996982e-03,-2.114102906200712e-01,-2.160087713753060e-01,-2.653024968847655e-01,5.306249197299542e-01,
1326,1.586666666666635e-02,-1.332757638110174e-15,-5.226415655413802e-04,-3.777111086111906e-03,-1.849615490280906e-01,-3.150274242199846e-01,-3.298480005661060e-01,6.723956765173797e-01,
1327,1.586666666666637e-02,9.999999999880063e-05,-4.910106099225109e-04,-3.782247937360640e-03,-1.417422803744544e-01,-4.308151315043475e-01,-3.720472554646661e-01,7.982729824161203e-01,
1328,1.586666666666641e-02,1.999999999989337e-04,-4.593794771161050e-04,-3.787385506978796e-03,-8.938898739939737e-02,-5.539352401886337e-01,-3.880045282354830e-01,9.044298075060773e-01,
1329,1.586666666666643e-02,2.999999999992003e-04,-4.277478369839110e-04,-3.792523806892741e-03,-4.041335147925923e-02,-6.735449655431510e-01,-3.775328592546442e-01,9.853831133092836e-01,
1330,1.586666666666646e-02,3.999999999996002e-04,-3.961155004442350e-04,-3.797662736467885e-03,-1.487525081318954e-02,-7.725350322230939e-01,-3.458056694759429e-01,1.025853102804161e+00,
