"PointID","x","y","Displacement_1","Displacement_2","Velocity_1","Velocity_2","Acceleration_1","Acceleration_2","Sxx","Syy","Sxy","Von_Mises_Stress"
0,5.000000000000000e-04,0.000000000000000e+00,0.000000000000000e+00,0.000000000000000e+00,0.000000000000000e+00,0.000000000000000e+00,0.000000000000000e+00,0.000000000000000e+00,-1.215326020220109e+02,-4.079034109030671e+02,1.588649181482189e+02,4.277388093827254e+02,
1,-5.000000000000000e-04,0.000000000000000e+00,0.000000000000000e+00,0.000000000000000e+00,0.000000000000000e+00,0.000000000000000e+00,0.000000000000000e+00,0.000000000000000e+00,1.209697332101947e+02,4.002546719232496e+02,1.618555101680527e+02,4.275381873926555e+02,
2,-5.000000000000000e-04,1.600000000000000e-02,1.173441715681149e-03,9.785740309168470e-07,1.367121039052250e-04,-4.843420759622386e-06,6.625494621842347e-03,9.687070258754648e-05,-3.229197529355502e-01,-3.152419719252071e-01,1.694443883480180e-01,3.389757385002333e-01,
3,5.000000000000000e-04,1.600000000000000e-02,1.168210518043337e-03,-1.011389873777649e-04,1.355411289852208e-04,-1.668333654320555e-05,6.577007669770096e-03,-5.213431318439003e-04,-6.198330231625485e-02,-1.070246118051711e-01,1.512292366952336e-01,3.057937992931974e-01,
4,2.500000000010164e-04,0.000000000000000e+00,0.000000000000000e+00,0.000000000000000e+00,0.000000000000000e+00,0.000000000000000e+00,0.000000000000000e+00,0.000000000000000e+00,-5.913947867268621e+01,-2.012650456685328e+02,1.498175909145833e+02,3.316337120735595e+02,
5,1.355361135824129e-15,0.000000000000000e+00,0.000000000000000e+00,0.000000000000000e+00,0.000000000000000e+00,0.000000000000000e+00,0.000000000000000e+00,0.000000000000000e+00,7.244882471302798e-01,-2.131974850116265e+00,1.473824981135899e+02,2.947788363879526e+02,
6,-2.499999999989835e-04,0.000000000000000e+00,0.000000000000000e+00,0.000000000000000e+00,0.000000000000000e+00,0.000000000000000e+00,0.000000000000000e+00,0.000000000000000e+00,6.011137783904309e+01,1.961749346303713e+02,1.513316614933017e+02,3.318408934534742e+02,
7,-5.000000000000000e-04,1.006407844091905e-03,8.446574979319209e-06,7.365693334407515e-06,9.619767845009125e-07,9.125476853712544e-07,3.334411624857753e-05,5.965382529988540e-05,5.620222204410163e+00,3.550113085831885e+02,4.946052949146171e+00,3.495310930375808e+02,
8,-5.000000000000000e-04,1.964891508928506e-03,2.943230912958738e-05,1.373157820388090e-05,3.412624390164029e-06,1.685611481475786e-06,1.308751202185545e-04,1.141056232124862e-04,3.264904163666527e+01,3.361099900583380e+02,7.143968179775598e+00,3.037971236572125e+02,
9,-5.000000000000000e-04,2.877733094607172e-03,6.081946402081087e-05,1.891455924768690e-05,7.076553477900655e-06,2.283088283943574e-06,2.794645925582959e-04,1.614050949737210e-04,2.372599876050582e+01,3.040247293019894e+02,9.781760934998950e+00,2.809806216291883e+02,
10,-5.000000000000000e-04,3.747106030483989e-03,9.996939668705242e-05,2.298543015772335e-05,1.165126088783187e-05,2.710597966243656e-06,4.700010089041050e-04,2.018723645482431e-04,2.286747385626506e+01,2.761352681070688e+02,1.190125851014192e+01,2.543838348267601e+02,
11,-5.000000000000000e-04,4.575080255248663e-03,1.448853995945086e-04,2.604235312092885e-05,1.690305345967834e-05,2.978500746700544e-06,6.944269790982036e-04,2.353057418048267e-04,2.055616738575049e+01,2.495647051921179e+02,1.298475315554659e+01,2.304763017020455e+02,
12,-5.000000000000000e-04,5.363627136157465e-03,1.939039391233189e-04,2.819405934266768e-05,2.263669862770923e-05,3.102486251164785e-06,9.455000445458282e-04,2.619416629685008e-04,1.869326921365095e+01,2.247215855093490e+02,1.352607072315282e+01,2.077967407647943e+02,
13,-5.000000000000000e-04,6.114624164579013e-03,2.456786921754877e-04,2.955722264518255e-05,2.869366996869353e-05,3.100864608352575e-06,1.216860070612748e-03,2.821836100970862e-04,1.688583429783347e+01,2.015600855081711e+02,1.358842964407170e+01,1.866632281432699e+02,
14,-5.000000000000000e-04,6.829859429751239e-03,2.991232172491914e-04,3.024567474120223e-05,3.494569923228547e-05,2.992411370709880e-06,1.502908142136632e-03,2.965454797883640e-04,1.519959330743103e+01,1.800511637964047e+02,1.330467921518708e+01,1.669853234531622e+02,
15,-5.000000000000000e-04,7.511035871475964e-03,3.533685789728053e-04,3.036658961047917e-05,4.129000297095695e-05,2.795312278306898e-06,1.798760631239043e-03,3.056157588556980e-04,1.361337687217930e+01,1.601476649688966e+02,1.277074200110888e+01,1.487436216886200e+02,
16,-5.000000000000000e-04,8.159775341860062e-03,4.077263080772339e-04,3.001783250231965e-05,4.764507941569416e-05,2.526441589068721e-06,2.100209163331077e-03,3.100180996293573e-04,1.212818509690492e+01,1.417934597448423e+02,1.206309607577291e+01,1.318906994342601e+02,
17,-5.000000000000000e-04,8.777622455299949e-03,4.616571347510680e-04,2.928680913724905e-05,5.394711172604759e-05,2.200993399209325e-06,2.403680179563591e-03,3.103822011427091e-04,1.074079227969875e+01,1.249231232472732e+02,1.124311617007444e+01,1.163754069812169e+02,
18,-5.000000000000000e-04,9.366048275369538e-03,5.147445557615767e-04,2.825024581942022e-05,6.014690101405235e-05,1.832335321524735e-06,2.706191660789624e-03,3.073208571425875e-04,9.449691153121570e+00,1.094667448383400e+02,1.035818126122283e+01,1.021399956140260e+02,
19,-5.000000000000000e-04,9.926453823835571e-03,5.666726194655724e-04,2.697453997554125e-05,6.620726281589814e-05,1.432005669534560e-06,3.005304530778978e-03,3.014127557500898e-04,8.252730739503834e+00,9.535110921599718e+01,9.444767136832883e+00,8.912318462841459e+01,
20,-5.000000000000000e-04,1.046017339761237e-02,6.172073103401412e-04,2.551646174460504e-05,7.210082545942320e-05,1.009801590766351e-06,3.299069356831117e-03,2.931905188486716e-04,7.147487029877519e+00,8.250181635068128e+01,8.530287798236195e+00,7.726149226536525e+01,
21,-5.000000000000000e-04,1.096847775295908e-02,6.661810185958592e-04,2.392403629689569e-05,7.780817751394609e-05,5.739185900670157e-07,3.585969933687687e-03,2.831331961923920e-04,6.131065166179017e+00,7.084466564119677e+01,7.634912856348697e+00,6.649073366820653e+01,
22,-5.000000000000000e-04,1.145257713930474e-02,7.134796296677363e-04,2.223749870367964e-05,8.331631566723215e-05,1.311152075569872e-07,3.864865728864413e-03,2.716624081263294e-04,5.200280255534736e+00,6.030688104750132e+01,6.773030815314090e+00,5.674709892625305e+01,
23,-5.000000000000000e-04,1.191362417171623e-02,7.590318322146635e-04,2.049024806545775e-05,8.861735008526714e-05,-3.131148986173726e-07,4.134935148156545e-03,2.591412905965189e-04,4.351882924112786e+00,5.081788033613887e+01,5.954506764904002e+00,4.796783837893432e+01,
24,-5.000000000000000e-04,1.235271658100143e-02,8.028003005882816e-04,1.870975417131669e-05,9.370743000794738e-05,-7.543747356816699e-07,4.395621531541936e-03,2.458755060904641e-04,3.582700908727068e+00,4.230947195443330e+01,5.185757506954644e+00,4.009153425986958e+01,
25,-5.000000000000000e-04,1.277089982958619e-02,8.447744485592125e-04,1.691838934586499e-05,9.858585680053495e-05,-1.189206052823544e-06,4.646583440627453e-03,2.321158141764396e-04,2.889324627161960e+00,3.471549461759089e+01,4.470666119531234e+00,3.305831995835507e+01,
26,-5.000000000000000e-04,1.316916958938912e-02,8.849644897830856e-04,1.513417472577301e-05,1.032543566659360e-04,-1.614944444318038e-06,4.887650312560207e-03,2.180622093627283e-04,2.267023657418623e+00,2.797144565199352e+01,3.811271342128543e+00,2.681082742192988e+01,
27,-5.000000000000000e-04,1.354847412286125e-02,9.233965790187005e-04,1.337144568005856e-05,1.077164889583059e-04,-2.029587843639296e-06,5.118782864598258e-03,2.038699732465786e-04,1.708063844817939e+00,2.201537674243861e+01,3.208072455940590e+00,2.129680428261784e+01,
28,-5.000000000000000e-04,1.390971653547481e-02,9.601088367114953e-04,1.164145449186738e-05,1.119771652484889e-04,-2.431677341142846e-06,5.340034520467815e-03,1.896583757852348e-04,1.200600305322903e+00,1.679178258291158e+01,2.659772064321403e+00,1.647369158839552e+01,
29,-5.000000000000000e-04,1.425375692572729e-02,9.951481096925052e-04,9.952932764753993e-06,1.160422541119747e-04,-2.820188134273443e-06,5.551509053655802e-03,1.755237616697372e-04,7.304512058342787e-01,1.225950969038836e+01,2.162510364758385e+00,1.231361010634242e+01,
30,-5.000000000000000e-04,1.458141443892261e-02,1.028567373907890e-03,8.312624516086090e-06,1.199182553906763e-04,-3.194427393668810e-06,5.753319420903098e-03,1.615595667561437e-04,2.880098409263398e-01,8.401913740371873e+00,1.709187179225312e+00,8.804585154562943e+00,
31,-5.000000000000000e-04,1.489346921440715e-02,1.060423736706700e-03,6.725768759225611e-06,1.236120568189768e-04,-3.553940973531098e-06,5.945578236573107e-03,1.478799251322528e-04,-1.189919280784401e-01,5.233161424618728e+00,1.290528690835367e+00,5.942003258015306e+00,
32,-5.000000000000000e-04,1.519066423919462e-02,1.090777035235998e-03,5.196468055885224e-06,1.271308203689340e-04,-3.898453052556883e-06,6.128470338071742e-03,1.346217201609792e-04,-4.549876046775004e-01,2.787819504930239e+00,8.991302795298015e-01,3.708037080234212e+00,
33,-5.000000000000000e-04,1.547370711896134e-02,1.119688967805754e-03,3.727835072006472e-06,1.304820017493449e-04,-4.227896389286450e-06,6.302398733972431e-03,1.218709761554188e-04,-6.515355429556473e-01,1.082342117816303e+00,5.426712039098813e-01,2.045556130917949e+00,
34,-5.000000000000000e-04,1.574327176642322e-02,1.147222718890353e-03,2.321820418741759e-06,1.336733965648695e-04,-4.542592784886886e-06,6.468077486501494e-03,1.094652579479615e-04,-6.947330463393639e-01,6.599853288147634e-03,2.355099454948982e-01,8.448239898392879e-01,
35,-2.500000000010164e-04,1.600000000000000e-02,1.172133397706552e-03,-2.455109953166888e-05,1.364199256137096e-04,-7.801667192173215e-06,6.614017520705369e-03,-5.581632715185328e-05,-2.188798604144563e-01,-2.524815540265725e-02,3.951862118567564e-01,8.137455409110080e-01,
36,-1.355361135824129e-15,1.600000000000000e-02,1.170824744286559e-03,-5.008011860322077e-05,1.361269257746373e-04,-1.076121840040715e-05,6.601733723137376e-03,-2.099964608823796e-04,-1.575010728125445e-01,-2.919581674254342e-01,4.081815430769022e-01,8.273617097293683e-01,
37,2.499999999989835e-04,1.600000000000000e-02,1.169517821105597e-03,-7.560928099120634e-05,1.358338693580748e-04,-1.372195459660845e-05,6.589212101919899e-03,-3.654291255472888e-04,-1.040578992077534e-01,-5.258217255201747e-01,3.262450473200746e-01,7.769350351150379e-01,
38,5.000000000000000e-04,1.574327176052735e-02,1.141991692480080e-03,-9.979640819920787e-05,1.325005155668499e-04,-1.638201677453865e-05,6.417598355527387e-03,-5.082253675972293e-04,3.370491220019473e-01,-4.214949681091338e-01,8.887102426143648e-02,7.790900926436911e-01,
39,5.000000000000000e-04,1.547370711299237e-02,1.114458184266308e-03,-9.838153594058718e-05,1.293082134898591e-04,-1.606581954278678e-05,6.250866017067745e-03,-4.950487164653998e-04,2.890303163843571e-01,-1.615338348988408e+00,1.868044800459295e-01,1.940670932619584e+00,
40,5.000000000000000e-04,1.519066423316013e-02,1.085548158741426e-03,-9.688800287848533e-05,1.259564644612107e-04,-1.573349305512995e-05,6.075882663238670e-03,-4.815827912067207e-04,1.015363339555294e-01,-3.427623459774022e+00,2.113752278807599e-01,3.554389792569716e+00,
41,5.000000000000000e-04,1.489346920831432e-02,1.055199717746239e-03,-9.530820650197012e-05,1.224379863389099e-04,-1.538379278255926e-05,5.892287473837229e-03,-4.676450634077066e-04,-1.966010986327120e-01,-5.940398905489073e+00,1.478581486486590e-01,5.751405165221381e+00,
42,5.000000000000000e-04,1.458141443278146e-02,1.023352291780431e-03,-9.363400164301815e-05,1.187455764209526e-04,-1.501548269275783e-05,5.699741195929742e-03,-4.530866289645601e-04,-5.479718926921628e-01,-9.144543101897304e+00,-1.678432344809733e-02,8.596636749856842e+00,
43,5.000000000000000e-04,1.425375691954914e-02,9.899471461341052e-04,-9.185692825709906e-05,1.148722240919018e-04,-1.462733372330683e-05,5.497941544036239e-03,-4.377781931525542e-04,-9.348121361592012e-01,-1.302399188611497e+01,-2.749864487606494e-01,1.210168323890311e+01,
44,5.000000000000000e-04,1.390971652927272e-02,9.549284268193571e-04,-8.996830669384830e-05,1.108112631568159e-04,-1.421815005615757e-05,5.286658337612956e-03,-4.216190632688900e-04,-1.360927424991401e+00,-1.757554308955554e+01,-6.163732766602156e-01,1.626140907837485e+01,
45,5.000000000000000e-04,1.354847411664866e-02,9.182446553515013e-04,-8.795921111797792e-05,1.065565358122472e-04,-1.378679595157462e-05,5.065740838504362e-03,-4.045530553954722e-04,-1.838524324973444e+00,-2.281856009115378e+01,-1.033705537755562e+00,2.108165290733514e+01,
46,5.000000000000000e-04,1.316916958317831e-02,8.798507488929513e-04,-8.582040820410081e-05,1.021025999097284e-04,-1.333220577980498e-05,4.835103209037886e-03,-3.865628204460656e-04,-2.379125740782396e+00,-2.879293237000923e+01,-1.524720805829390e+00,2.658925111373209e+01,
47,5.000000000000000e-04,1.277089982339102e-02,8.397106107651969e-04,-8.354232628099314e-05,9.744502294192924e-05,-1.285339418461401e-05,4.594724763033227e-03,-3.676517442700267e-04,-2.991115332258604e+00,-3.555261128562584e+01,-2.090709934052314e+00,3.282887891528633e+01,
48,5.000000000000000e-04,1.235271657484083e-02,7.978003632841474e-04,-8.111509140443251e-05,9.258077487880298e-05,-1.234948484524143e-05,4.344673858379462e-03,-3.478305355386374e-04,-3.680374058414118e+00,-4.315909744692971e+01,-2.734217360289176e+00,3.985565679649697e+01,
49,5.000000000000000e-04,1.191362416560891e-02,7.541123230431368e-04,-7.852863218795099e-05,8.750871976318135e-05,-1.181976204060414e-05,4.085146491704404e-03,-3.271148636901749e-04,-4.451619152640528e+00,-5.167745301139121e+01,-3.457126460994171e+00,4.772930208083444e+01,
50,5.000000000000000e-04,1.145257713327167e-02,7.086598570223271e-04,-7.577283665712041e-05,8.223021344367593e-05,-1.126374039726121e-05,3.816510328447590e-03,-3.055311773464770e-04,-5.309256280240977e+00,-6.117494467846230e+01,-4.259480127518240e+00,5.651148400134305e+01,
51,5.000000000000000e-04,1.096847774702164e-02,6.614833040341614e-04,-7.283774179294439e-05,7.674982673538498e-05,-1.068124772556347e-05,3.539350924323722e-03,-2.831259736188310e-04,-6.257585467137796e+00,-7.172118877789720e+01,-5.138777240570050e+00,6.626546222989222e+01,
52,5.000000000000000e-04,1.046017339179728e-02,6.126571758830589e-04,-6.971373977313855e-05,7.107621892117766e-05,-1.007251767863026e-05,3.254520378167191e-03,-2.599758833803174e-04,-7.300607362456009e+00,-8.338859555052468e+01,-6.089341874593335e+00,7.705648762025416e+01,
53,5.000000000000000e-04,9.926453818030926e-03,5.622988920824719e-04,-6.639178594113388e-05,6.522318970641851e-05,-9.438288898106748e-06,2.963188794182855e-03,-2.361976306375177e-04,-8.441684281382191e+00,-9.625243706069759e+01,-7.101480447717302e+00,8.895196682405225e+01,
54,5.000000000000000e-04,9.366048269887984e-03,5.105793391378512e-04,-6.286358598662822e-05,5.921093998364132e-05,-8.779904710331719e-06,2.666897784707476e-03,-2.119574099862232e-04,-9.683212881935198e+00,-1.103904104268317e+02,-8.160316583150850e+00,1.020210895074925e+02,
55,5.000000000000000e-04,8.777622450027459e-03,4.577355819340397e-04,-5.912172206323206e-05,5.306757434062025e-05,-8.099402751595913e-06,2.367614257084984e-03,-1.874788735118369e-04,-1.102625651636667e+01,-1.258817876517686e+02,-9.244269220172601e+00,1.163340839395549e+02,
56,5.000000000000000e-04,8.159775336832667e-03,4.040861072750087e-04,-5.515965145398810e-05,4.683088281139373e-05,-7.399577658713447e-06,2.067782362967738e-03,-1.630483567052093e-04,-1.247046394102497e+01,-1.428064507535013e+02,-1.032325882170212e+01,1.319611615180065e+02,
57,5.000000000000000e-04,7.511035866725855e-03,3.500490371935815e-04,-5.097147203945237e-05,4.055044436270424e-05,-6.683991063885597e-06,1.770371637413770e-03,-1.390154508417273e-04,-1.401309799489565e+01,-1.612433249029511e+02,-1.135632686316481e+01,1.489718240295448e+02,
58,5.000000000000000e-04,6.829859425319454e-03,2.961637894988510e-04,-4.655130533840520e-05,3.429009690144883e-05,-5.956891918969955e-06,1.478919837260825e-03,-1.157866637809182e-04,-1.565132551200943e+01,-1.812697955983539e+02,-1.228961535595440e+01,1.674324228342008e+02,
59,5.000000000000000e-04,6.114624160506467e-03,2.431167693384617e-04,-4.189205713492463e-05,2.813082964833846e-05,-5.222992446218803e-06,1.197570391148244e-03,-9.380948049244394e-05,-1.737393598387678e+01,-2.029576140735856e+02,-1.305223850365157e+01,1.874106328176966e+02,
60,5.000000000000000e-04,5.363627132490625e-03,1.917716317177050e-04,-3.698325982004109e-05,2.217413836178009e-05,-4.487027129678749e-06,9.311044648660817e-04,-7.354384494998213e-05,-1.919149450636413e+01,-2.263757779597267e+02,-1.355191890016279e+01,2.089496239134917e+02,
61,5.000000000000000e-04,4.575080252041626e-03,1.432050737300169e-04,-3.180766286222376e-05,1.654595826160750e-05,-3.752994375622805e-06,6.849777283222300e-04,-5.541566655180817e-05,-2.101331793260198e+01,-2.515696527400018e+02,-1.369420959926401e+01,2.321774085177457e+02,
62,5.000000000000000e-04,3.747106027788383e-03,9.874730907666950e-05,-2.633493885807064e-05,1.140100757139783e-05,-3.022869049381775e-06,4.653569959624337e-04,-3.975520509050464e-05,-2.323241698134135e+01,-2.786700797169432e+02,-1.323406358253977e+01,2.568052984255852e+02,
63,5.000000000000000e-04,2.877733092484807e-03,6.003823340996495e-05,-2.051662268763353e-05,6.928817967620575e-06,-2.295159531911677e-06,2.792089090542792e-04,-2.673294445234852e-05,-2.382037760498458e+01,-3.070999733084154e+02,-1.238025805952707e+01,2.843596534327280e+02,
64,5.000000000000000e-04,1.964891507441873e-03,2.903720267996967e-05,-1.426556525244881e-05,3.354013580094351e-06,-1.560219600476127e-06,1.341910128466734e-04,-1.597615002722590e-05,-3.264214879560137e+01,-3.404548905593413e+02,-1.001869831899906e+01,3.084642301080294e+02,
65,5.000000000000000e-04,1.006407843311793e-03,8.338259368664130e-06,-7.435670113584147e-06,9.767018030247829e-07,-8.005275950479596e-07,4.094625991155541e-05,-7.400687324257249e-06,-4.187108109053273e+00,-3.597050753283969e+02,-5.086892182400462e+00,3.556635079735842e+02,
66,2.500000000008887e-04,1.006407843506821e-03,7.851437176875020e-06,-3.668994164027896e-06,9.132118886697000e-07,-3.618731469044107e-07,3.667700759003389e-05,1.007431156237941e-05,1.660725589310688e+01,-1.749436184304274e+02,-1.289925436895331e+00,1.915682465458235e+02,
67,2.500000000007668e-04,1.964891507813531e-03,2.878894190743844e-05,-7.246950840508483e-06,3.328376704141009e-06,-7.461717969572744e-07,1.317067656199634e-04,1.641177170636304e-05,-3.290643172745959e+00,-1.677033839802796e+02,-3.624744860876831e+00,1.645724899279070e+02,
68,2.500000000006507e-04,2.877733093015397e-03,5.989104781587761e-05,-1.061787995446229e-05,6.925764853225790e-06,-1.144259592079355e-06,2.774939932434750e-04,2.047908918747687e-05,7.715094687543322e-01,-1.499282790962796e+02,-4.599562940767022e+00,1.509802973587291e+02,
69,2.500000000005403e-04,3.747106028462285e-03,9.874818506391939e-05,-1.396776230402816e-05,1.142804910510834e-05,-1.583552125111251e-06,4.648478091129423e-04,2.078186464161288e-05,-2.199947763543051e-01,-1.365245782782946e+02,-4.917290862915468e+00,1.366589129232318e+02,
70,2.500000000004351e-04,4.575080252843386e-03,1.433489869517890e-04,-1.730631036485014e-05,1.660301796925277e-05,-2.063843096485658e-06,6.857238874579611e-04,1.741014431256598e-05,-1.985347409961515e-01,-1.231512766693414e+02,-5.027584313453076e+00,1.233632164132153e+02,
71,2.500000000003349e-04,5.363627133407335e-03,1.920565174621353e-04,-2.065055723774824e-05,2.226086523216311e-05,-2.583394915001171e-06,9.331634714947825e-04,1.047668407787709e-05,-2.673802575753510e-01,-1.108938710445246e+02,-4.851402620676140e+00,1.110511814137363e+02,
72,2.500000000002396e-04,6.114624161524604e-03,2.435347783767247e-04,-2.399213683244055e-05,2.824567647166165e-05,-3.135898429639651e-06,1.200934566147364e-03,3.379498859145747e-07,-2.858017964704560e-01,-9.947664150576418e+01,-4.515668753440361e+00,9.960114326350872e+01,
73,2.500000000001486e-04,6.829859426427401e-03,2.967050664022780e-04,-2.731568757558698e-05,3.443098360153366e-05,-3.713661818048646e-06,1.483548267986753e-03,-1.255916199345363e-05,-2.729002666441687e-01,-8.891458877332906e+01,-4.065271464179178e+00,8.901378921058259e+01,
74,2.500000000000621e-04,7.511035867913383e-03,3.507023872082324e-04,-3.060211334255698e-05,4.071495973264229e-05,-4.308556730014766e-06,1.776195592476382e-03,-2.772258580479458e-05,-2.407617588618682e-01,-7.916481366650430e+01,-3.548499261894932e+00,7.924249716892389e+01,
75,2.499999999999796e-04,8.159775338089516e-03,4.048399169973260e-04,-3.383217126149500e-05,4.701649387935392e-05,-4.912809052615309e-06,2.074714951704972e-03,-4.466071292925965e-05,-1.952445851698932e-01,-7.018991266586147e+01,-2.999844309122240e+00,7.025133324885783e+01,
76,2.499999999999012e-04,8.777622451345581e-03,4.585783498293793e-04,-3.698834542856006e-05,5.327175752310665e-05,-5.519416067071223e-06,2.375557341262177e-03,-6.291077813425097e-05,-1.427123866505648e-01,-6.195090097608989e+01,-2.445820464988714e+00,6.200145423855418e+01,
77,2.499999999998264e-04,9.366048271258372e-03,5.115000548800834e-04,-4.005582124972657e-05,5.943127306417499e-05,-6.122350570630848e-06,2.675747887015740e-03,-8.205673423669662e-05,-8.770536799018702e-02,-5.440812881320456e+01,-1.905924431529871e+00,5.445400439841136e+01,
78,2.499999999997552e-04,9.926453819482088e-03,5.632872649721731e-04,-4.302286146031961e-05,6.545740895492668e-05,-6.716620873464017e-06,2.972841703721188e-03,-1.017383118568280e-04,-3.366121411638057e-02,-4.752214714151047e+01,-1.394161788373928e+00,4.757027479471771e+01,
79,2.499999999996873e-04,1.046017339325105e-02,6.137037639841691e-04,-4.588080306995945e-05,7.132225191673069e-05,-7.298240646229568e-06,3.264874626341874e-03,-1.216535923700239e-04,1.699437959627292e-02,-4.125407773348072e+01,-9.202206119679897e-01,4.131208802834303e+01,
80,2.499999999996228e-04,1.096847774850600e-02,6.625795694102962e-04,-4.862383591334154e-05,7.700580726654457e-05,-7.864146591465440e-06,3.550310247534526e-03,-1.415570022940742e-04,6.267222245850768e-02,-3.556604944390983e+01,-4.904766870975337e-01,3.564222323455552e+01,
81,2.499999999995612e-04,1.145257713477994e-02,7.097981706440102e-04,-5.124866744988253e-05,8.249448394539857e-05,-8.412089595263703e-06,3.827985291214721e-03,-1.612542633177867e-04,1.024563972970658e-01,-3.042149785690751e+01,-1.087703306703198e-01,3.052472943781992e+01,
82,2.499999999995027e-04,1.191362416713574e-02,7.552859365155376e-04,-5.375414214481620e-05,8.777982525552233e-05,-8.940516476453735e-06,4.097055423756692e-03,-1.805955900754427e-04,1.359302530279035e-01,-2.578530289943830e+01,2.230660779557776e-01,2.592507207405703e+01,
83,2.499999999994468e-04,1.235271657638098e-02,7.990033604752648e-04,-5.614085730685965e-05,9.285745128073626e-05,-9.448453190155220e-06,4.356943233388333e-03,-1.994680206303717e-04,1.629587557555128e-01,-2.162372025494290e+01,5.049036875887045e-01,2.181006862094132e+01,
84,2.499999999993937e-04,1.277089982493981e-02,8.409378478900323e-04,-5.841079930258174e-05,9.772618175669665e-05,-9.935396000322923e-06,4.607289088520847e-03,-2.177876180546787e-04,1.834571537068351e-01,-1.790421043667526e+01,7.380361500561994e-01,1.814779623798212e+01,
85,2.499999999993432e-04,1.316916958473101e-02,8.810977864920065e-04,-6.056701441771646e-05,1.023873107561686e-04,-1.040121408884837e-05,4.847904397711333e-03,-2.354921800881419e-04,1.973026675218744e-01,-1.459551801620830e+01,9.245017968671638e-01,1.490792936898474e+01,
86,2.499999999992949e-04,1.354847411820181e-02,9.195076806057101e-04,-6.261332569437485e-05,1.068440080619958e-04,-1.084606548025478e-05,5.078726794962511e-03,-2.525354644675922e-04,2.046705011152417e-01,-1.166856715317936e+01,1.065529346144890e+00,1.206296744359956e+01,
87,2.499999999992490e-04,1.390971653082324e-02,9.562041628335171e-04,-6.455410650200966e-05,1.111008274822661e-04,-1.127032745206502e-05,5.299779872182573e-03,-2.688845087167841e-04,2.069762723577924e-01,-9.098636584674166e+00,1.159051829137450e+00,9.589996622286472e+00,
88,2.499999999992054e-04,1.425375692109368e-02,9.912327510983026e-04,-6.639411882200171e-05,1.151633136604204e-04,-1.167454309899151e-05,5.511145962503365e-03,-2.845222467587246e-04,2.080023669061694e-01,-6.868550873741695e+00,1.197308167473409e+00,7.470729091549091e+00,
89,2.499999999991637e-04,1.458141443431675e-02,1.024645267565253e-03,-6.813841178797377e-05,1.190377069767590e-04,-1.205938504890396e-05,5.712961943564022e-03,-2.994563206202019e-04,2.136829095871888e-01,-4.971215777370142e+00,1.166998479008341e+00,5.686010569286957e+00,
90,2.499999999991241e-04,1.489346920983753e-02,1.056497872951819e-03,-6.979225274164672e-05,1.227307386589634e-04,-1.242563234271448e-05,5.905435354495834e-03,-3.137293135953183e-04,2.280479022680636e-01,-3.408193930997674e+00,1.054973453216818e+00,4.204061205306203e+00,
91,2.499999999990863e-04,1.519066423466875e-02,1.086849668644597e-03,-7.136103643394931e-05,1.262494850718255e-04,-1.277414371340127e-05,6.088857603591915e-03,-3.274141422169761e-04,2.441945124935263e-01,-2.181506340072890e+00,8.613744741732346e-01,2.975212356315143e+00,
92,2.499999999990504e-04,1.547370711448462e-02,1.115761797825403e-03,-7.285012335874598e-05,1.296012421082099e-04,-1.310580849454870e-05,6.263592528260021e-03,-3.405807723111118e-04,2.327512158165166e-01,-1.282878424982775e+00,6.112049581080286e-01,1.947156699223958e+00,
93,2.499999999990161e-04,1.574327176200131e-02,1.143296693960520e-03,-7.426463380683443e-05,1.327934871476534e-04,-1.342147244460795e-05,6.430147524562722e-03,-3.532459770094531e-04,1.572121518592536e-01,-6.825827825109865e-01,3.733809817048286e-01,1.123792223584663e+00,
94,1.184875704781024e-15,1.006407843701849e-03,7.713367099722930e-06,-2.757163569792785e-08,8.908652199627284e-07,6.051789336504093e-08,3.408258983597278e-05,2.678205870327968e-05,2.727435416565314e-01,-2.062865166080688e+00,4.932303385989677e+00,1.013733371264056e+01,
95,1.022455384882907e-15,1.964891508185190e-03,2.877048842926595e-05,-2.525185412889799e-07,3.329398761434498e-06,6.512201579273716e-08,1.302778836656228e-04,4.896190572089767e-05,1.198368860526120e-01,-1.486303608380104e+00,2.134415870749816e+00,4.560988020713423e+00,
96,8.677948575702119e-16,2.877733093545990e-03,5.997450765089799e-05,-7.829602271145414e-07,6.949811722457886e-06,-1.831780515342504e-09,2.770054170018904e-04,6.747258342701413e-05,1.536800671293790e-01,-1.371444113906272e+00,3.545923465101765e+00,7.253984880671926e+00,
97,7.205394526600072e-16,3.747106029136186e-03,9.895156543277276e-05,-1.654318587141883e-06,1.147869739220965e-05,-1.514919179332366e-07,4.654492520691621e-04,8.118319328688415e-05,1.244424670628117e-01,-1.193879194716563e+00,3.651536124367922e+00,7.421107482995537e+00,
98,5.803045995277069e-16,4.575080253645144e-03,1.436768044010468e-04,-2.860998671919689e-06,1.668148850165705e-05,-3.823773476303716e-07,6.875515895519943e-04,9.006149287905070e-05,1.716243713376633e-01,-1.108787904994743e+00,4.004906597721593e+00,8.111508060975993e+00,
99,4.466546648991909e-16,5.363627134324046e-03,1.925058996659348e-04,-4.372651307551482e-06,2.236665647807960e-05,-6.873447389453348e-07,9.362457037008213e-04,9.431051739860898e-05,2.229201444736937e-01,-1.056748979125814e+00,4.225242710758568e+00,8.546827301704861e+00,
100,3.194206417189443e-16,6.114624162542739e-03,2.440998897388509e-04,-6.145840983364724e-06,2.837748330926896e-05,-1.056257276258875e-06,1.205263693719510e-03,9.428336506147151e-05,2.828902659271257e-01,-1.031397531992708e+00,4.402311220004858e+00,8.902175505284291e+00,
101,1.982047239643139e-16,6.829859427535346e-03,2.973772153091098e-04,-8.132094684544780e-06,3.458686117196054e-05,-1.477664236699259e-06,1.489077524121507e-03,9.045525936282992e-05,3.420591624742515e-01,-1.021729931843347e+00,4.522549026755907e+00,9.147334010050296e+00,
102,8.282681954954345e-17,7.511035869100909e-03,3.514717129130311e-04,-1.028291329949731e-05,4.089265679704932e-05,-1.940074793407188e-06,1.782852961773614e-03,8.335039087185818e-05,3.959383476113165e-01,-1.020600287201046e+00,4.594477018073508e+00,9.297497404266302e+00,
103,-2.706916110251754e-17,8.159775339346365e-03,4.056960197575537e-04,-1.255279169426600e-05,4.721362566871593e-05,-2.432666996448762e-06,2.082411413542451e-03,7.350540648405435e-05,4.415989298432239e-01,-1.022749443196471e+00,4.622135408202569e+00,9.359533059114845e+00,
104,-1.317720118365232e-16,8.777622452663704e-03,4.595108956897208e-04,-1.490087464996927e-05,5.348594563920414e-05,-2.945696933998405e-06,2.384194309878142e-03,6.143956271543159e-05,4.774446643767609e-01,-1.024669696755449e+00,4.610389796407060e+00,9.342329680180258e+00,
105,-2.314631978162431e-16,9.366048272628762e-03,5.124991330324519e-04,-1.729167922957424e-05,5.966023422941843e-05,-3.470682330896193e-06,2.685222956273758e-03,4.763524804234827e-05,5.028288746356759e-01,-1.024053634658153e+00,4.563605201242281e+00,9.254044517312947e+00,
106,-3.263800803483142e-16,9.926453820933247e-03,5.643436211084584e-04,-1.969522471437195e-05,6.569901222662131e-05,-4.000443068490198e-06,2.983053098097490e-03,3.252617744275350e-05,5.177658965360665e-01,-1.019516122574423e+00,4.485856932317418e+00,9.102465911782442e+00,
107,-4.168029263140256e-16,1.046017339470482e-02,6.148089289703037e-04,-2.208679551847942e-05,7.157455088471412e-05,-4.529051357417408e-06,3.275724392596163e-03,1.649168164171276e-05,5.226949891148627e-01,-1.010311519774991e+00,4.380783828939513e+00,8.894671257550241e+00,
108,-5.029199223649104e-16,1.096847774999036e-02,6.637259165877894e-04,-2.444649771582687e-05,7.726705461745626e-05,-5.051730027548943e-06,3.561706374951912e-03,-1.444552149240956e-07,5.183272920163727e-01,-9.961300295348654e-01,4.251562304995574e+00,8.636938642356865e+00,
109,-5.849903192396864e-16,1.145257713628820e-02,7.109789228821263e-04,-2.675871614450214e-05,8.276313357770994e-05,-5.564724778694416e-06,3.839842930356579e-03,-1.711190802283796e-05,5.055686036479589e-01,-9.769522636476237e-01,4.100923958330201e+00,8.334757187224678e+00,
110,-6.630738678750722e-16,1.191362416866257e-02,7.564951400645298e-04,-2.901154218564735e-05,8.805452590055841e-05,-6.065167713897659e-06,4.109297327077594e-03,-3.418964596653803e-05,4.854919414057690e-01,-9.529765646683325e-01,3.931309618660384e+00,7.993120349028512e+00,
111,-7.374378611433265e-16,1.235271657792113e-02,8.002358381365596e-04,-3.119621583734586e-05,9.313703443828531e-05,-6.550943280295682e-06,4.369499555429543e-03,-5.120064216247575e-05,4.592684643906505e-01,-9.245989353670495e-01,3.745135144791232e+00,7.617036037141608e+00,
112,-8.082865264913851e-16,1.277089982648861e-02,8.421891405867195e-04,-3.330660643556160e-05,9.800964606600877e-05,-7.020563229803066e-06,4.620096806931825e-03,-6.800609152845562e-05,4.279227909546831e-01,-8.923685142067113e-01,3.544961533522687e+00,7.211808249468842e+00,
113,-8.757614457427488e-16,1.316916958628371e-02,8.823640889216097e-04,-3.533874317112469e-05,1.026738049853603e-04,-7.473053593614810e-06,4.860906975236336e-03,-8.449911981815413e-05,3.918436019164356e-01,-8.567789778980759e-01,3.333102509154039e+00,6.782134449635929e+00,
114,-9.400232736565021e-16,1.354847411975496e-02,9.207857732303090e-04,-3.729039881145572e-05,1.071328152059474e-04,-7.907853784231703e-06,5.091874660618714e-03,-1.005973485739801e-04,3.502275843797276e-01,-8.177852689502960e-01,3.110127055724395e+00,6.328966363991809e+00,
115,-1.001225014489971e-15,1.390971653237377e-02,9.574913398774109e-04,-3.916072700939263e-05,1.113913512438410e-04,-8.324726614192460e-06,5.313030631800184e-03,-1.162342957225032e-04,3.009876071153291e-01,-7.741562805774572e-01,2.872182168621898e+00,5.844112936814407e+00,
116,-1.059485281198407e-15,1.425375692263821e-02,9.925267447791321e-04,-4.094995571882794e-05,1.154550642559386e-04,-8.723680963735135e-06,5.524459747747978e-03,-1.313530049896892e-04,2.417938939021939e-01,-7.231633745944623e-01,2.608321799528307e+00,5.305140240333225e+00,
117,-1.114997063604122e-15,1.458141443585204e-02,1.025944176177851e-03,-4.265914213943263e-05,1.193302798480308e-04,-9.104914503557509e-06,5.726287121196800e-03,-1.459092044248758e-04,1.723768371677789e-01,-6.613667815550064e-01,2.300749206477037e+00,4.676421288354999e+00,
118,-1.167865427971631e-15,1.489346921136074e-02,1.057800111794058e-03,-4.428999238053568e-05,1.230237891634193e-04,-9.468782032285685e-06,5.918693190801352e-03,-1.598860570338852e-04,9.694454484603605e-02,-5.868934312660734e-01,1.932072231855739e+00,3.924187408114599e+00,
119,-1.218243356320596e-15,1.519066423617738e-02,1.088153982987557e-03,-4.584473666055571e-05,1.265427281250446e-04,-9.815773939491946e-06,6.101958259412437e-03,-1.733009269366257e-04,2.382489244091890e-02,-5.021643992954810e-01,1.500612525570904e+00,3.046968418382853e+00,
120,-1.266196521196539e-15,1.547370711597686e-02,1.117067302621987e-03,-4.732602615893239e-05,1.298945061079623e-04,-1.014645571770638e-05,6.276507327103663e-03,-1.861594653293612e-04,-3.886509366816415e-02,-4.132225379935957e-01,1.040916568206930e+00,2.115224031631788e+00,
121,-1.311811991933162e-15,1.574327176347529e-02,1.144603078090006e-03,-4.873679736326421e-05,1.330866984791329e-04,-1.046140198512375e-05,6.442878263982405e-03,-1.984104405964630e-04,-9.969432966720988e-02,-3.291099308960426e-01,6.189413597276342e-01,1.258961931598076e+00,
122,-2.499999999991112e-04,1.006407843896877e-03,7.909339168451173e-06,3.610405833457142e-06,9.071313611500563e-07,4.809572240757122e-07,3.300064986682984e-05,4.321657160471112e-05,-1.529493503956407e+01,1.710718276552439e+02,4.040829268136996e+00,1.865419080047157e+02,
123,-2.499999999992331e-04,1.964891508556847e-03,2.898925424737229e-05,6.734713626803468e-06,3.357952289069762e-06,8.749400783455964e-07,1.299954772691105e-04,8.150418174958090e-05,3.837951775292232e+00,1.645826557815222e+02,5.479015802657877e+00,1.611177777984589e+02,
124,-2.499999999993492e-04,2.877733094076581e-03,6.028248214659228e-05,9.042990635169167e-06,6.999991401908323e-06,1.138649785173309e-06,2.776719124525576e-04,1.144295664094323e-04,-3.620947722046868e-01,1.474100729211445e+02,7.124733300977628e+00,1.484576062154835e+02,
125,-2.499999999994595e-04,3.747106029810087e-03,9.935945926053860e-05,1.064894009218181e-05,1.155318696956048e-05,1.278205001515827e-06,4.671688578136078e-04,1.415114732723204e-04,4.502795987810115e-01,1.343823662612164e+02,8.415446685579166e+00,1.349854911071017e+02,
126,-2.499999999995648e-04,4.575080254446903e-03,1.441885009559413e-04,1.157353832520310e-05,1.678142628859113e-05,1.296679451107603e-06,6.904521198593692e-04,1.626580539014882e-04,3.845627285780875e-01,1.212830140303081e+02,9.114334662950110e+00,1.222649578274568e+02,
127,-2.499999999996649e-04,5.363627135240755e-03,1.931213953697612e-04,1.189431053699733e-05,2.249184524558757e-05,1.206247094354447e-06,9.403554380080972e-04,1.780882763363621e-04,4.560094334192035e-01,1.091917734894872e+02,9.509690326814670e+00,1.103866079980019e+02,
128,-2.499999999997605e-04,6.114624163560876e-03,2.448139519795592e-04,1.168969870195065e-05,2.852667448300779e-05,1.020988838939122e-06,1.210567127606352e-03,1.881812021956949e-04,5.120967669481447e-01,9.787759658972615e+01,9.614930419365132e+00,9.924630020114760e+01,
129,-2.499999999998512e-04,6.829859428643293e-03,2.981825913510863e-04,1.104116148985600e-05,3.475826483797832e-05,7.560509979196292e-07,1.495523739498903e-03,1.934321480329972e-04,5.542040437873821e-01,8.737276220541317e+01,9.513203122915561e+00,8.887894112721528e+01,
130,-2.499999999999378e-04,7.511035870288436e-03,3.523596685236089e-04,1.002654192516511e-05,4.108414548410945e-05,4.262795812150190e-07,1.790365703310953e-03,1.943986544957828e-04,5.826148101151096e-01,7.765174546396992e+01,9.254050495386931e+00,7.926033498557541e+01,
131,-2.500000000000203e-04,8.159775340603213e-03,4.066573115454409e-04,8.717542982505080e-06,4.742294550389173e-05,4.552797981357778e-08,2.090899035597101e-03,1.916616094859252e-04,5.950964259080149e-01,6.868886195906154e+01,8.881612457742385e+00,7.037253060592738e+01,
132,-2.500000000000988e-04,8.777622453981825e-03,4.605362771097495e-04,7.178314755808090e-06,5.371084454665337e-05,-3.737293572595558e-07,2.393556970869061e-03,1.857962450428888e-04,5.928194383180130e-01,6.045368378995826e+01,8.430426353792118e+00,6.219012329102046e+01,
133,-2.500000000001735e-04,9.366048273999148e-03,5.135797324396818e-04,5.464972731401401e-06,5.989855248990752e-05,-8.205640430777529e-07,2.695358451381412e-03,1.773506805086852e-04,5.772052418472260e-01,5.291245262581469e+01,7.927879307680689e+00,5.468439631201646e+01,
134,-2.500000000002447e-04,9.926453822384412e-03,5.654711681486152e-04,3.625714474724184e-06,6.594873830317128e-05,-1.285614322530638e-06,2.993861145396832e-03,1.668314761699804e-04,5.501076327760321e-01,4.602965885741339e+01,7.395284911643598e+00,4.782416267214668e+01,
135,-2.500000000003124e-04,1.046017339615860e-02,6.159758841699258e-04,1.701288385589015e-06,7.183385308099953e-05,-1.761016150731175e-06,3.287109591499915e-03,1.546947821415593e-04,5.134228194948198e-01,3.976892468393845e+01,6.848968237077023e+00,4.157677104200491e+01,
136,-2.500000000003770e-04,1.096847775147472e-02,6.649255289631587e-04,-2.743421383721747e-07,7.753429500746628e-05,-2.240282369140844e-06,3.573580012994562e-03,1.413420097892311e-04,4.689534769653365e-01,3.409386232301521e+01,6.301175116017764e+00,3.590896442778668e+01,
137,-2.500000000004386e-04,1.145257713779647e-02,7.122052381171066e-04,-2.273249318600622e-06,8.303686957288419e-05,-2.718156364413962e-06,3.852123811188242e-03,1.271189519836542e-04,4.184007232434226e-01,2.896868364883994e+01,5.760871685215933e+00,3.078748488307707e+01,
138,-2.500000000004972e-04,1.191362417018940e-02,7.577429753028474e-04,-4.272777889087940e-06,8.833350333867161e-05,-3.190457669629026e-06,4.121911741321078e-03,1.123173206286541e-04,3.634487267003172e-01,2.435853798414653e+01,5.234480265290255e+00,2.617944695870528e+01,
139,-2.500000000005530e-04,1.235271657946128e-02,8.015007357126658e-04,-6.254813687148874e-06,9.342017503191971e-05,-3.653930769505195e-06,4.382380572521526e-03,9.717779533368888e-05,3.057980514892473e-01,2.022954516064086e+01,4.726565724512641e+00,2.205260513095852e+01,
140,-2.500000000006060e-04,1.277089982803740e-02,8.434673105731155e-04,-8.205109121368165e-06,9.829603157031991e-05,-4.106103632245591e-06,4.633183405016917e-03,8.189407838361733e-05,2.468816027798502e-01,1.654870436998908e+01,4.240379289601255e+00,1.837587254016032e+01,
141,-2.500000000006568e-04,1.316916958783642e-02,8.836523488601465e-04,-1.011267451667096e-05,1.029626608348462e-04,-4.545158752739852e-06,4.874144116854914e-03,6.661818607669177e-05,1.870287018506853e-01,1.328419860862379e+01,3.778016340759145e+00,1.512049898155003e+01,
142,-2.500000000007049e-04,1.354847412130811e-02,9.220814914054850e-04,-1.196923180208192e-05,1.074234968518107e-04,-4.969816180029851e-06,5.105215430260845e-03,5.146824088350503e-05,1.242041030481511e-01,1.040686129878726e+01,3.339869981869023e+00,1.226180920534341e+01,
143,-2.500000000007509e-04,1.390971653392429e-02,9.587923843899816e-04,-1.376872000738708e-05,1.116833345370897e-04,-5.379226175861188e-06,5.326439172340876e-03,3.653999605798618e-05,5.316870029767801e-02,7.893295363219719e+00,2.923278841962530e+00,9.780072742169368e+00,
144,-2.500000000007946e-04,1.425375692418275e-02,9.938314344017367e-04,-1.550684594634645e-05,1.157479349718425e-04,-5.772871149100552e-06,5.537908674586598e-03,2.192056811140583e-05,-3.337942614259953e-02,5.729936246717699e+00,2.520953023588083e+00,7.657455460764283e+00,
145,-2.500000000008361e-04,1.458141443738733e-02,1.027251222730700e-03,-1.718068917948961e-05,1.196237114903791e-04,-6.150483615032777e-06,5.739741193783598e-03,7.697024851309789e-06,-1.402092561035908e-01,3.915310683967161e+00,2.120898698817800e+00,5.868567725339771e+00,
146,-2.500000000008758e-04,1.489346921288395e-02,1.059108546142398e-03,-1.878839272790963e-05,1.233175066267259e-04,-6.511994563487932e-06,5.932083827434336e-03,-6.051744589106816e-06,-2.617483238537115e-01,2.455919688600859e+00,1.710314407224937e+00,4.368800855173365e+00,
147,-2.500000000009135e-04,1.519066423768600e-02,1.089463059730241e-03,-2.032898442701805e-05,1.268364828588211e-04,-6.857521053221775e-06,6.115180555778209e-03,-1.928289810336324e-05,-3.745235927528941e-01,1.352692520465743e+00,1.286055686964871e+00,3.098230530748291e+00,
148,-2.500000000009495e-04,1.547370711746910e-02,1.118376460891677e-03,-2.180234545424173e-05,1.301881162940806e-04,-7.187372838078185e-06,6.289484029757700e-03,-3.201358229267112e-05,-4.387888882119720e-01,5.847591015326606e-01,8.669669513738698e-01,2.013498762455117e+00,
149,-2.500000000009838e-04,1.574327176494925e-02,1.145911865704959e-03,-2.320922307728217e-05,1.333800793422484e-04,-7.501957244430549e-06,6.455603117142837e-03,-4.422820926212092e-05,-4.181874394137565e-01,1.072562748109318e-01,5.153636024116589e-01,1.156931142108780e+00,
