"PointID","x","y","Displacement_x","Displacement_y","Velocity_x","Velocity_y","Acceleration_x","Acceleration_y","Sxx","Syy","Sxy","Von_Mises_Stress"
0, -1.990233000000000e-01, 1.178851000000000e-02, 0.000000000000000e+00, 0.000000000000000e+00, 0.000000000000000e+00, 0.000000000000000e+00, 0.000000000000000e+00, 0.000000000000000e+00, -1.349705927766153e+07, -4.723899126567821e+06, 2.565190121617207e+06, 1.016312651091723e+07
1, -1.905404000000000e-01, 1.243298000000000e-02, -1.426953635064257e-04, 8.586262084523605e-05, -9.100014865717803e-03, 4.665846863527204e-03, -6.627025315880061e-01, 1.335382976864294e+00, -9.928989101791691e+06, 2.708280984239386e+05, -6.060261042460878e+05, 1.027157930767832e+07
2, -1.814989000000000e-01, 1.300915000000000e-02, -2.702290873657189e-04, 2.381998039062608e-04, -1.786436798342757e-02, 1.291675785777483e-02, -2.595185204466801e-01, 1.676226436007509e+00, -8.507968523875099e+06, -4.958143191882275e+05, -4.549300872449878e+05, 8.063650571348217e+06
3, -1.719248000000000e-01, 1.351448000000000e-02, -3.924547930503606e-04, 4.818127972806628e-04, -2.695683923824219e-02, 2.701768538996963e-02, 7.166898311863439e-01, 9.822308989651934e-01, -7.236742606973017e+06, -2.921985644448504e+05, -4.044870426848689e+05, 6.991504203632667e+06
4, -1.618466000000000e-01, 1.394718000000000e-02, -5.071062588150098e-04, 8.114463275250138e-04, -3.622904198359369e-02, 4.719127695221233e-02, 2.241554353206554e+00, -9.560036932958118e-01, -6.169418630160892e+06, -2.723664002254038e+05, -3.358538398752667e+05, 5.935184597771410e+06
5, -1.512935000000000e-01, 1.430588000000000e-02, -6.139769749321266e-04, 1.223254864453421e-03, -4.566479339674996e-02, 7.376729557545841e-02, 4.246778374925034e+00, -4.320163005441493e+00, -5.258011051833027e+06, -2.191509674498565e+05, -2.790931129223838e+05, 5.069682713219121e+06
6, -1.402968000000000e-01, 1.459006000000000e-02, -7.129713276134604e-04, 1.712580658078628e-03, -5.525317067727806e-02, 1.070625354876895e-01, 6.638307132537729e+00, -9.194851684022399e+00, -4.486360112001246e+06, -1.816528805733286e+05, -2.311067018027007e+05, 4.329450955811867e+06
7, -1.288884000000000e-01, 1.479966000000000e-02, -8.039094529879113e-04, 2.274556180441999e-03, -6.497161180423605e-02, 1.474230381713083e-01, 9.313056257560760e+00, -1.555806452282959e+01, -3.820411258873062e+06, -1.476580052173127e+05, -1.899956638136013e+05, 3.692358307546922e+06
8, -1.171021000000000e-01, 1.493550000000000e-02, -8.866334501636835e-04, 2.903874146018709e-03, -7.478794803297371e-02, 1.952159577937726e-01, 1.216557555991677e+01, -2.325838938178730e+01, -3.240138517994601e+06, -1.184003195969688e+05, -1.548238082963345e+05, 3.137057702018951e+06
9, -1.049722000000000e-01, 1.499882000000000e-02, -9.610080467233879e-04, 3.594914637812482e-03, -8.465360692612439e-02, 2.508555446836527e-01, 1.510612474453904e+01, -3.196711914731563e+01, -2.729631082004658e+06, -9.260948323414233e+04, -1.246667480584499e+05, 2.648782759055201e+06
10, -9.253454000000000e-02, 1.499170000000000e-02, -1.026959063475046e-03, 4.341705370348453e-03, -9.448920725773653e-02, 3.148016819642038e-01, 1.810536071255263e+01, -4.115896020402377e+01, -2.277169666410610e+06, -6.984258233325905e+04, -9.886884489148049e+04, 2.216166295669647e+06
11, -7.982535000000000e-02, 1.491658000000000e-02, -1.084469677572653e-03, 5.138019389730908e-03, -1.041652120019917e-01, 3.875009641095228e-01, 2.124218298732554e+01, -5.027219307505455e+01, -1.874151228781529e+06, -4.965420115711509e+04, -7.689073786053367e+04, 1.830966451381693e+06
12, -6.688208000000000e-02, 1.477656000000000e-02, -1.133613755634866e-03, 5.977367395379760e-03, -1.135476460407354e-01, 4.692033990704483e-01, 2.461593562341163e+01, -5.910055895625621e+01, -1.514555575733995e+06, -3.177944260935998e+04, -5.833234417217888e+04, 1.487358635457680e+06
13, -5.374259000000000e-02, 1.457506000000000e-02, -1.174556610666369e-03, 6.853105226320512e-03, -1.225148778834174e-01, 5.602837426199765e-01, 2.827674864441915e+01, -6.723335672729662e+01, -1.194532871330392e+06, -1.602384978644970e+04, -4.288029747153776e+04, 1.181625318578377e+06
14, -4.044550000000000e-02, 1.431595000000000e-02, -1.207581092717158e-03, 7.758486359894637e-03, -1.308671580138364e-01, 6.612192259723497e-01, 3.240358427458548e+01, -7.391612193018587e+01, -9.121448895140764e+05, -2.090976263726225e+03, -3.031759564820747e+04, 9.120716810897205e+05
15, -2.702974000000000e-02, 1.400332000000000e-02, -1.233095446560859e-03, 8.686782222445993e-03, -1.382629826278521e-01, 7.723591192801017e-01, 3.737199894808941e+01, -7.881348798284694e+01, -6.674681026805121e+05, 1.016308933241662e+04, -2.051730996375476e+04, 6.788725008581935e+05
16, -1.353473000000000e-02, 1.364154000000000e-02, -1.251662821302302e-03, 9.631389354877697e-03, -1.442785264834730e-01, 8.935853072290088e-01, 4.359200935988486e+01, -8.213890339736926e+01, -4.626673835516924e+05, 2.117380606197816e+04, -1.337918988369457e+04, 4.845805481594858e+05
17, -9.637083000000000e-13, 1.323506000000000e-02, -1.264022217435261e-03, 1.058599579928363e-02, -1.485613443836317e-01, 1.024318537280804e+00, 5.137242322389858e+01, -8.448817139518351e+01, -3.024507193013914e+05, 2.891161486280447e+04, -8.916661079009424e+03, 3.318418657763602e+05
18, 1.353473000000000e-02, 1.278846000000000e-02, -1.271101107433460e-03, 1.154482305699725e-02, -1.509556749472469e-01, 1.163662756906676e+00, 6.076199963181516e+01, -8.692825526560645e+01, -1.919070153344103e+05, 3.335191456136771e+04, -6.369690372570311e+03, 2.256188762483332e+05
19, 2.702974000000000e-02, 1.230631000000000e-02, -1.274006832734418e-03, 1.250280462182233e-02, -1.515329260208195e-01, 1.310793322887399e+00, 7.145769736060703e+01, -9.032716247200213e+01, -1.365571240710542e+05, 1.655487356127499e+04, -4.363194909049904e+03, 1.533604698030748e+05
20, 4.044550000000000e-02, 1.179317000000000e-02, -1.273786490541118e-03, 1.345650041102953e-02, -1.504063717583852e-01, 1.465485729635090e+00, 8.303675742248758e+01, -9.463614685739969e+01, -1.137049608290985e+05, -5.603683847398286e+03, -3.425125858014761e+03, 1.083181057517497e+05
21, 5.374259000000000e-02, 1.125353000000000e-02, -1.270989128838927e-03, 1.440326614676622e-02, -1.474742831496892e-01, 1.627669724007390e+00, 9.529324448177277e+01, -9.920770046046502e+01, -9.153323040054498e+04, -5.417728353846363e+03, -2.941388106882674e+03, 8.631620212182761e+04
22, 6.688208000000000e-02, 1.069178000000000e-02, -1.265806521565963e-03, 1.533980218845795e-02, -1.425612525847910e-01, 1.796428896812564e+00, 1.082216868065416e+02, -1.038042491852475e+02, -6.787413621900382e+04, -2.176609083486917e+03, -2.022901951057907e+03, 6.582198417653752e+04
23, 7.982535000000000e-02, 1.011222000000000e-02, -1.258421199786923e-03, 1.626276668931513e-02, -1.356378947252136e-01, 1.970661100198460e+00, 1.218122382305976e+02, -1.083867228729533e+02, -4.428986881693319e+04, 1.443908126086080e+01, -1.432233098933733e+03, 4.439681142758684e+04
24, 9.253454000000000e-02, 9.518999000000000e-03, -1.249032055967968e-03, 1.716890786866194e-02, -1.267673482491773e-01, 2.149312875048114e+00, 1.360105279110118e+02, -1.129108042928858e+02, -2.190184642837065e+04, 5.043065937107042e+02, -9.739735941650674e+02, 2.249066898732558e+04
25, 1.049722000000000e-01, 8.916182000000000e-03, -1.237856259953459e-03, 1.805506281997739e-02, -1.160496327863453e-01, 2.331317232064940e+00, 1.507346674587153e+02, -1.173103893339111e+02, -5.754769160855649e+02, 8.883731762904160e+02, -6.484107507051522e+02, 1.955659249324698e+03
26, 1.171021000000000e-01, 8.307683999999999e-03, -1.225108375803283e-03, 1.891818122971759e-02, -1.036019021121795e-01, 2.515546986174678e+00, 1.658935726026908e+02, -1.215374965952037e+02, 1.983729168683243e+04, 1.509067420099609e+03, -4.041047097822047e+02, 1.834603519122120e+04
27, 1.288884000000000e-01, 7.697351000000000e-03, -1.211002795619697e-03, 1.975526524547230e-02, -8.956515428621015e-02, 2.700800335737068e+00, 1.813885672656143e+02, -1.255813880472372e+02, 3.920555370864805e+04, 2.092692834286879e+03, -2.395478462253286e+02, 3.711595310593832e+04
28, 1.402968000000000e-01, 7.088912000000000e-03, -1.195755654131923e-03, 2.056347075963691e-02, -7.410889190219550e-02, 2.885845425594872e+00, 1.971117161125275e+02, -1.294630687726371e+02, 5.737375556292279e+04, 2.536959778325598e+03, -1.649291886970950e+02, 5.483778786996019e+04
29, 1.512935000000000e-01, 6.486048000000000e-03, -1.179586460605488e-03, 2.134004709085531e-02, -5.743044632874073e-02, 3.069425635309219e+00, 2.129445056142671e+02, -1.332256740711701e+02, 7.424303749233276e+04, 2.910446286305638e+03, -1.755377165266582e+02, 7.133345513940755e+04
30, 1.618466000000000e-01, 5.892357000000000e-03, -1.162717982910979e-03, 2.208244393583984e-02, -3.974747148118296e-02, 3.250294090269620e+00, 2.287629861371976e+02, -1.369309179193665e+02, 8.967941189739468e+04, 3.177964031634179e+03, -2.636369019189515e+02, 8.650305486245612e+04
31, 1.719248000000000e-01, 5.311408000000000e-03, -1.145375882859013e-03, 2.278823101271878e-02, -2.129477993847351e-02, 3.427199968663620e+00, 2.444392706779778e+02, -1.406581324236364e+02, 1.035690445825592e+05, 3.330029259596094e+03, -4.295899663678683e+02, 1.002426974052178e+05
32, 1.814989000000000e-01, 4.746728000000000e-03, -1.127789849455604e-03, 2.345521291592037e-02, -2.319271378987242e-03, 3.598924033979896e+00, 2.598458641300036e+02, -1.445034249518030e+02, 1.158228006391618e+05, 3.385616130287084e+03, -6.706764618892958e+02, 1.124451852590802e+05
33, 1.905404000000000e-01, 4.201807000000000e-03, -1.110189313523530e-03, 2.408133909621980e-02, 1.692238320652439e-02, 3.764264851731215e+00, 2.748549065182228e+02, -1.485758183062457e+02, 1.263189235957740e+05, 3.330608911378645e+03, -9.763677317798793e+02, 1.230038158948677e+05
34, 1.990233000000000e-01, 3.680033000000000e-03, -1.092802398116601e-03, 2.466483782381107e-02, 3.617084496717138e-02, 3.922080244062514e+00, 2.893422807024363e+02, -1.529933804271568e+02, 1.349013090926886e+05, 3.154598467044349e+03, -1.338821843091879e+03, 1.317739182706024e+05
35, 2.069223000000000e-01, 3.184785000000000e-03, -1.075856991526393e-03, 2.520410093092274e-02, 5.516389250534104e-02, 4.071262889158926e+00, 3.031853439902980e+02, -1.578750625184877e+02, 1.413755438657381e+05, 2.847557609299076e+03, -1.736030428614125e+03, 1.385714912341657e+05
36, 2.142143000000000e-01, 2.719501000000000e-03, -1.059587504441851e-03, 2.569779665478851e-02, 7.363948601932879e-02, 4.210776492155620e+00, 3.162657035466426e+02, -1.633296000946610e+02, 1.454480638688072e+05, 2.388706995083832e+03, -2.130587753663138e+03, 1.431228046323422e+05
37, 2.208774000000000e-01, 2.287439000000000e-03, -1.044215481821554e-03, 2.614481326347497e-02, 9.134057315638278e-02, 4.339646132544697e+00, 3.284674095001469e+02, -1.694380013546368e+02, 1.466532377750450e+05, 1.774586568517616e+03, -2.457124985697308e+03, 1.449619723520757e+05
38, 2.268939000000000e-01, 1.891072000000000e-03, -1.029915191187912e-03, 2.654447489723846e-02, 1.080326665835447e-01, 4.457027661250507e+00, 3.396824510159686e+02, -1.762340289999554e+02, 1.444613569469951e+05, 9.968185631252090e+02, -2.648717564177496e+03, 1.435623090948178e+05
39, 2.322460000000000e-01, 1.533172000000000e-03, -1.016873776010553e-03, 2.689626329296911e-02, 1.234781070518258e-01, 4.562138643998419e+00, 3.498050002776180e+02, -1.836715252125352e+02, 1.384681399918349e+05, 4.829770004049897e+01, -2.537550961240260e+03, 1.385128492220444e+05
40, 2.369133000000000e-01, 1.218487000000000e-03, -1.005390245808243e-03, 2.719966368798172e-02, 1.373986103100340e-01, 4.654222080056013e+00, 3.587310455159577e+02, -1.915841606108091e+02, 1.281443760563324e+05, -1.117222666400254e+03, -1.903221886846593e+03, 1.293176318935629e+05
41, 2.408804000000000e-01, 9.500542000000000e-04, -9.956454051109097e-04, 2.745467336602198e-02, 1.495601498069263e-01, 4.732701192232693e+00, 3.663720506943907e+02, -1.996684859868599e+02, 1.126499905205745e+05, -2.380806238878577e+03, -7.469432720114055e+02, 1.150404967831807e+05
42, 2.441551000000000e-01, 7.221023000000000e-04, -9.872876469946780e-04, 2.766293159606889e-02, 1.599503808922884e-01, 4.797537714921614e+00, 3.726799566187667e+02, -2.075291545149903e+02, 9.242519499173993e+04, -3.657835444507056e+03, 7.077777041384470e+02, 9.609345729510760e+04
43, 2.467325000000000e-01, 5.343920000000000e-04, -9.802787679949892e-04, 2.782529011838614e-02, 1.684383674809886e-01, 4.848540964319935e+00, 3.776085882935448e+02, -2.146197034783002e+02, 7.020923862854941e+04, -5.114614603014410e+03, 3.168006159566630e+03, 7.558986650178963e+04
44, 2.485345000000000e-01, 4.176267000000000e-04, -9.763507977967196e-04, 2.793791646232856e-02, 1.741584667754645e-01, 4.884195185514191e+00, 3.810712971880935e+02, -2.200636179385341e+02, 4.334617467722653e+04, -7.145521264873759e+03, 6.239174188995532e+03, 5.201077328161945e+04
45, 2.495362000000000e-01, 3.807847000000000e-04, -9.759535262110346e-04, 2.800020887710688e-02, 1.768004677988335e-01, 4.904052520790210e+00, 3.830596645495101e+02, -2.231948801204264e+02, 1.203381927185449e+04, -4.758849785756030e+03, 4.209559414466196e+03, 1.878497527105409e+04
46, 2.500000000000000e-01, 3.150000000000000e-04, -9.727657839085949e-04, 2.802911629484242e-02, 1.789942361902619e-01, 4.913150027096915e+00, 3.838174865773548e+02, -2.247639724360581e+02, 2.568479149399883e+03, 7.797611562748765e+03, 4.480545651628569e+03, 1.037521002879684e+04
47, -1.990233000000000e-01, 8.841386000000000e-03, 0.000000000000000e+00, 0.000000000000000e+00, 0.000000000000000e+00, 0.000000000000000e+00, 0.000000000000000e+00, 0.000000000000000e+00, -9.039761159007864e+06, -3.144340811943810e+06, 2.079675094081486e+06, 7.214996538900638e+06
48, -1.905404000000000e-01, 9.324733000000000e-03, -9.580501052875926e-05, 6.947463344607566e-05, -6.462466193493447e-03, 3.543505313456396e-03, -4.687102684253477e-01, 1.190124136614986e+00, -7.167427793743320e+06, 5.422691682906651e+05, -2.384371577652031e+05, 7.724431134990373e+06
49, -1.814989000000000e-01, 9.756861000000000e-03, -1.976412202041637e-04, 2.272945557032838e-04, -1.366852967091116e-02, 1.205487362704141e-02, -5.044822789997495e-01, 1.545394991584573e+00, -6.534507852238324e+06, -1.505973450931555e+04, -1.682329481904422e+05, 6.528124773561525e+06
50, -1.719248000000000e-01, 1.013586000000000e-02, -2.908790781918518e-04, 4.723562976233855e-04, -2.079673974140177e-02, 2.615086873874877e-02, 5.594591136871507e-02, 7.751796053266439e-01, -5.427307749496371e+06, 4.714312197067461e+04, -1.503492892872425e+05, 5.482702981127375e+06
51, -1.618466000000000e-01, 1.046039000000000e-02, -3.793566663744226e-04, 8.042335228202516e-04, -2.810321835668047e-02, 4.636848889818716e-02, 1.119716063124037e+00, -1.265991776416152e+00, -4.630137988456954e+06, 3.965475551813344e+04, -1.224697727320324e+05, 4.676212105178135e+06
52, -1.512935000000000e-01, 1.072941000000000e-02, -4.624686171214864e-04, 1.218048498983944e-03, -3.554490378255150e-02, 7.297090039669922e-02, 2.647918893167304e+00, -4.765695082950691e+00, -3.943067855847672e+06, 4.270440588214734e+04, -9.842514072116258e+04, 3.990630345657031e+06
53, -1.402968000000000e-01, 1.094255000000000e-02, -5.402821646656130e-04, 1.709322655110737e-03, -4.312028026911831e-02, 1.062857684679154e-01, 4.579096385548635e+00, -9.802641340800328e+00, -3.362595446302147e+06, 4.346518874305452e+04, -7.695004446248119e+04, 3.409535787607403e+06
54, -1.288884000000000e-01, 1.109975000000000e-02, -6.126992096324130e-04, 2.273121702859147e-03, -5.081104952553594e-02, 1.466564534465716e-01, 6.845595288425598e+00, -1.634644216039204e+01, -2.863051030791696e+06, 4.406208863193136e+04, -5.805819316086039e+04, 2.909431165072889e+06
55, -1.171021000000000e-01, 1.120162000000000e-02, -6.796217002883590e-04, 2.904127895586572e-03, -5.858673981433020e-02, 1.944524805781609e-01, 9.384123104175584e+00, -2.423341745774443e+01, -2.428715200767713e+06, 4.437287916014894e+04, -4.162978754209312e+04, 2.474489201416017e+06
56, -1.049722000000000e-01, 1.124912000000000e-02, -7.409450099197265e-04, 3.596702505442900e-03, -6.639814232429450e-02, 2.500875545513132e-01, 1.215268692077041e+01, -3.312654531404121e+01, -2.047384450279207e+06, 4.445873534103768e+04, -2.753783419139615e+04, 2.092568097451947e+06
57, -9.253454000000000e-02, 1.124378000000000e-02, -7.965855965035391e-04, 4.344860699897504e-03, -7.417161223996684e-02, 3.140154613174693e-01, 1.514979983407763e+01, -4.250854569327367e+01, -1.710004993044915e+06, 4.433778160063919e+04, -1.567416087165265e+04, 1.754622833610455e+06
58, -7.982535000000000e-02, 1.118743000000000e-02, -8.464880685776629e-04, 5.142365478213617e-03, -8.181834823598033e-02, 3.866643221805141e-01, 1.840144379583828e+01, -5.185067370850761e+01, -1.409963651062718e+06, 4.402344231191351e+04, -5.956418365201520e+03, 1.454035894804174e+06
59, -6.688208000000000e-02, 1.108242000000000e-02, -8.906517455300223e-04, 5.982721007667642e-03, -8.922595852397724e-02, 4.683196308851756e-01, 2.197328278341171e+01, -6.088017696092105e+01, -1.142603122631523e+06, 4.350505354586111e+04, 1.676456141402799e+03, 1.186112915204794e+06
60, -5.374259000000000e-02, 1.093129000000000e-02, -9.291302174281513e-04, 6.859279750789280e-03, -9.625150320546036e-02, 5.593591363889543e-01, 2.598260415339981e+01, -6.916039433779905e+01, -9.049433849914415e+05, 4.279567597302685e+04, 7.257216118199867e+03, 9.478501972468842e+05
61, -4.044550000000000e-02, 1.073696000000000e-02, -9.620599143046929e-04, 7.765294109033938e-03, -1.027075955635870e-01, 6.602470291319098e-01, 3.058805914322547e+01, -7.599691863810750e+01, -6.954634636642906e+05, 4.206793054044612e+04, 1.077012580506104e+04, 7.378458781324255e+05
62, -2.702974000000000e-02, 1.050249000000000e-02, -9.896655976860172e-04, 8.694037774609831e-03, -1.083337655790934e-01, 7.713081214983415e-01, 3.603071550720365e+01, -8.105680056306474e+01, -5.142292549023045e+05, 4.148382532322191e+04, 1.213184496593112e+04, 5.562425317996205e+05
63, -1.353473000000000e-02, 1.023115000000000e-02, -1.012290114155753e-03, 9.638910597128750e-03, -1.128191429399966e-01, 8.924278536125068e-01, 4.261124975296936e+01, -8.453747924477236e+01, -3.627631397231948e+05, 4.143570355382933e+04, 1.123224953240097e+04, 4.048226261274396e+05
64, -9.637083000000000e-13, 9.926297000000001e-03, -1.030409126844387e-03, 1.059361804468660e-02, -1.158929964193965e-01, 1.023034420512140e+00, 5.054702201010233e+01, -8.705625455522951e+01, -2.447061350253961e+05, 4.050567794141502e+04, 8.070458774528753e+03, 2.856681772181506e+05
65, 1.353473000000000e-02, 9.591344000000000e-03, -1.044654812548565e-03, 1.155239465428884e-02, -1.174147672694462e-01, 1.162252214305668e+00, 5.986516227332637e+01, -8.964693706015893e+01, -1.623987354380590e+05, 3.844773100385860e+04, 3.500625944751474e+03, 2.009684567543489e+05
66, 2.702974000000000e-02, 9.229734000000000e-03, -1.055740550369957e-03, 1.251027512627158e-02, -1.173645658878688e-01, 1.309295177197392e+00, 7.040430570563608e+01, -9.313911300034613e+01, -1.181062635108130e+05, 1.989156743979653e+04, 1.974444097867768e+02, 1.379983959481154e+05
67, 4.044550000000000e-02, 8.844876000000000e-03, -1.064322752791195e-03, 1.346380710833442e-02, -1.157529611494297e-01, 1.463918740914684e+00, 8.191875201033098e+01, -9.750448120441555e+01, -9.766035524102979e+04, -1.623020558266449e+03, -8.425161211097361e+02, 9.605211599244662e+04
68, 5.374259000000000e-02, 8.440148000000000e-03, -1.070859791279731e-03, 1.441028629479147e-02, -1.125514391654000e-01, 1.625994232454824e+00, 9.421171222690393e+01, -1.021515374513035e+02, -8.051029749690134e+04, -2.777254359382735e+03, -7.056777789063885e+02, 7.774585468004001e+04
69, 6.688208000000000e-02, 8.018835000000000e-03, -1.075541559039287e-03, 1.534650029774963e-02, -1.076817894577730e-01, 1.794666813570048e+00, 1.072026419003470e+02, -1.068043903333723e+02, -6.361206803118326e+04, -7.930188378562982e+02, -1.640665376406675e+02, 6.281990618322130e+04
70, 7.982535000000000e-02, 7.584165000000000e-03, -1.078455116849138e-03, 1.626912465597234e-02, -1.010989108953317e-01, 1.968842867262329e+00, 1.208639756774911e+02, -1.114052259495814e+02, -4.620729700218917e+04, 1.162897453506336e+02, 6.809916895808374e+01, 4.632378696894388e+04
71, 9.253454000000000e-02, 7.139249000000000e-03, -1.079705711441665e-03, 1.717491184664315e-02, -9.284019712451752e-02, 2.147459028542483e+00, 1.351420254577753e+02, -1.159115879162284e+02, -2.938303815445074e+04, -4.493524268531444e+02, 1.122028458002571e+02, 2.893455594436880e+04
72, 1.049722000000000e-01, 6.687137000000000e-03, -1.079418957271828e-03, 1.806069709886922e-02, -8.298940858364945e-02, 2.329443330588211e+00, 1.499525829135087e+02, -1.202634237883130e+02, -1.324603611032962e+04, -1.070202656939467e+03, 6.588398780069292e+01, 1.217654643501551e+04
73, 1.171021000000000e-01, 6.230763000000000e-03, -1.077724848859126e-03, 1.892343297760739e-02, -7.165035615874304e-02, 2.513669957586912e+00, 1.651977667275621e+02, -1.244157184898809e+02, 2.228142809746067e+03, -1.412424208757662e+03, -3.263537487877602e+01, 3.641152082375995e+03
74, 1.288884000000000e-01, 5.773013000000000e-03, -1.074753446527613e-03, 1.976012620767578e-02, -5.894630918236998e-02, 2.698939257650538e+00, 1.807722709745188e+02, -1.283591555948535e+02, 1.697812612319238e+04, -1.731957471618522e+03, -1.888468143031596e+02, 1.871389538823764e+04
75, 1.402968000000000e-01, 5.316684000000000e-03, -1.070637009178196e-03, 2.056793666544757e-02, -4.502373964022910e-02, 2.884019655533390e+00, 1.965638928744194e+02, -1.321169300050835e+02, 3.090344745439028e+04, -2.116694461633213e+03, -4.087464029806779e+02, 3.303025986337573e+04
76, 1.512935000000000e-01, 4.864536000000000e-03, -1.065512086234632e-03, 2.134411726682044e-02, -3.005335347010973e-02, 3.067653697185102e+00, 2.124517022295315e+02, -1.357352435407305e+02, 4.392037152717353e+04, -2.499752973607890e+03, -6.870897191264739e+02, 4.644046002998426e+04
77, 1.618466000000000e-01, 4.419268000000000e-03, -1.059520588988911e-03, 2.208612151303429e-02, -1.422426294683876e-02, 3.248593305652566e+00, 2.283103636135898e+02, -1.392792265191553e+02, 5.592031140622210e+04, -2.907986032998097e+03, -1.015024075980911e+03, 5.886331349063392e+04
78, 1.719248000000000e-01, 3.983556000000000e-03, -1.052808510066020e-03, 2.279152283476376e-02, 2.259009936003364e-03, 3.425586183218094e+00, 2.440113560690282e+02, -1.428317536464925e+02, 6.681183873726254e+04, -3.347042686154499e+03, -1.390010287783491e+03, 7.021393848080072e+04
79, 1.814989000000000e-01, 3.560046000000000e-03, -1.045528209547227e-03, 2.345812939617949e-02, 1.918138858047591e-02, 3.597411194937697e+00, 2.594274606693406e+02, -1.464925761776915e+02, 7.651735620013153e+04, -3.796341450000564e+03, -1.808072619951190e+03, 8.039506537489040e+04
80, 1.905404000000000e-01, 3.151355000000000e-03, -1.037834273452618e-03, 2.408389412706538e-02, 3.631923260509295e-02, 3.762864531320696e+00, 2.744320677086196e+02, -1.503744917387198e+02, 8.493568863586945e+04, -4.265701189966038e+03, -2.262493237507690e+03, 8.931608729372184e+04
81, 1.990233000000000e-01, 2.760025000000000e-03, -1.029884009222212e-03, 2.466704853795110e-02, 5.344655750190963e-02, 3.920801368538264e+00, 2.889033076674908e+02, -1.545992987635574e+02, 9.194104151295894e+04, -4.759267417521311e+03, -2.744246310121884e+03, 9.685594095610648e+04
82, 2.069223000000000e-01, 2.388589000000000e-03, -1.021837099896034e-03, 2.520598750870204e-02, 7.033498080194400e-02, 4.070111522116770e+00, 3.027218598353279e+02, -1.592895922926916e+02, 9.737730546035185e+04, -5.279645935060774e+03, -3.234170763800801e+03, 1.028605323334359e+05
83, 2.142143000000000e-01, 2.039626000000000e-03, -1.013861886162656e-03, 2.569938212297129e-02, 8.675673718371568e-02, 4.209755693884340e+00, 3.157737809356182e+02, -1.645575947671222e+02, 1.010136626472879e+05, -5.836303973599960e+03, -3.696893467356869e+03, 1.071054781611137e+05
84, 2.208774000000000e-01, 1.715579000000000e-03, -1.006120191575857e-03, 2.614612309913561e-02, 1.024882326132455e-01, 4.338755983567369e+00, 3.279486178732272e+02, -1.704874717356175e+02, 1.024978576250750e+05, -6.411918716512086e+03, -4.075233604794041e+03, 1.092143282656131e+05
85, 2.268939000000000e-01, 1.418304000000000e-03, -9.987434144934969e-04, 2.654553633687224e-02, 1.173242411619100e-01, 4.456265618484773e+00, 3.391446466968083e+02, -1.771154648104783e+02, 1.014299537298007e+05, -6.989022347270411e+03, -4.290496628922941e+03, 1.087580241586418e+05
86, 2.322460000000000e-01, 1.149879000000000e-03, -9.918751243586262e-04, 2.689710524993534e-02, 1.310569448346088e-01, 4.561499504428669e+00, 3.492621618646417e+02, -1.843977248494359e+02, 9.749415541475061e+04, -7.559141750124892e+03, -4.171209824989128e+03, 1.053840178149798e+05
87, 2.369133000000000e-01, 9.138651000000000e-04, -9.857441976852271e-04, 2.720031741482766e-02, 1.434462265291321e-01, 4.653697208968479e+00, 3.582013834894050e+02, -1.921709306126907e+02, 9.028248124493577e+04, -8.137624611363298e+03, -3.503105855010381e+03, 9.866916559539129e+04
88, 2.408804000000000e-01, 7.125407000000000e-04, -9.804962539685189e-04, 2.745517088139352e-02, 1.542858239642826e-01, 4.732279132413426e+00, 3.658755779034615e+02, -2.001337843382175e+02, 7.919041183120295e+04, -8.574186253918269e+03, -2.296187909491622e+03, 8.788466642541032e+04
89, 2.441551000000000e-01, 5.415768000000000e-04, -9.758912191536394e-04, 2.766330081833494e-02, 1.635446848885762e-01, 4.797207929994674e+00, 3.722387340385823e+02, -2.078887176960494e+02, 6.454499187974384e+04, -8.835764344895571e+03, -7.200878376268120e+02, 7.339488735651517e+04
90, 2.467325000000000e-01, 4.007940000000000e-04, -9.719177298264158e-04, 2.782555765768936e-02, 1.710975107071859e-01, 4.848291299275661e+00, 3.772395931280744e+02, -2.148897145952831e+02, 4.829379345001007e+04, -9.136022371982926e+03, 1.949506778948928e+03, 5.756201917994805e+04
91, 2.485345000000000e-01, 3.132200000000000e-04, -9.698550207744449e-04, 2.793812214408985e-02, 1.762353165806607e-01, 4.883997074870118e+00, 3.807593987623109e+02, -2.202770123096266e+02, 2.804053645223475e+04, -1.004063665117078e+04, 4.794885766637258e+03, 3.927008356232437e+04
92, 2.495362000000000e-01, 2.855885000000000e-04, -9.700448623928465e-04, 2.800039372623451e-02, 1.786935061393982e-01, 4.903870614447760e+00, 3.827663520175273e+02, -2.233912205615437e+02, 4.501495263262662e+03, -5.289476684388300e+03, 1.541698120244368e+03, 1.026501164419935e+04
93, 2.501265000000000e-01, 1.963230000000000e-04, -9.656470416410587e-04, 2.803719385207799e-02, 1.815951323890472e-01, 4.915438448147190e+00, 3.837120111719078e+02, -2.254010049882710e+02, -2.459411713092689e+03, 2.843781652955397e+03, 4.094451832584860e+03, 9.756126440095295e+03
94, -1.990233000000000e-01, 5.894257000000000e-03, 0.000000000000000e+00, 0.000000000000000e+00, 0.000000000000000e+00, 0.000000000000000e+00, 0.000000000000000e+00, 0.000000000000000e+00, -5.692244923191534e+06, -1.972744338196111e+06, 1.781332936733999e+06, 5.150463350782608e+06
95, -1.905404000000000e-01, 6.216489000000000e-03, -6.041652143386393e-05, 5.932529091329944e-05, -4.411014331867883e-03, 2.799298197004316e-03, -4.839010101315825e-01, 1.058874776778910e+00, -4.810800190165670e+06, 1.257466985032558e+05, 3.560834647913922e+05, 4.987652445752231e+06
96, -1.814989000000000e-01, 6.504574000000000e-03, -1.289854464474900e-04, 2.184890320776797e-04, -9.586621641115362e-03, 1.133543521068672e-02, -7.755285551910573e-01, 1.353932924462453e+00, -4.414637490180909e+06, 1.396770736706681e+05, 2.488137325172404e+05, 4.581420548308922e+06
97, -1.719248000000000e-01, 6.757240000000000e-03, -1.937505647206278e-04, 4.658439080593317e-04, -1.479815046611572e-02, 2.550058466099211e-02, -6.164095239271816e-01, 5.277848422959371e-01, -3.729462071237206e+06, 4.324980179364216e+04, 2.147471290367899e+05, 3.797080483032471e+06
98, -1.618466000000000e-01, 6.973592000000000e-03, -2.550937994285974e-04, 7.993869680798268e-04, -2.008730059420293e-02, 4.574523033465432e-02, 1.548840531208429e-02, -1.617542820813076e+00, -3.148675228559616e+06, 6.235747224815665e+04, 1.766662110547973e+05, 3.230414030147016e+06
99, -1.512935000000000e-01, 7.152941000000000e-03, -3.138860874534638e-04, 1.214965573916376e-03, -2.550425240765505e-02, 7.237720290805241e-02, 1.090356478206477e+00, -5.249099041447705e+00, -2.687773070299932e+06, 5.949429557535209e+04, 1.526236742803942e+05, 2.764173280278700e+06
100, -1.402968000000000e-01, 7.295031000000000e-03, -3.700306866942352e-04, 1.707905830373247e-03, -3.103701886327523e-02, 1.057117069534814e-01, 2.583011694898486e+00, -1.044301330736824e+01, -2.292411157483916e+06, 5.854771571619614e+04, 1.347344857045101e+05, 2.366351865220085e+06
101, -1.288884000000000e-01, 7.399830000000000e-03, -4.235338871694308e-04, 2.273282426888830e-03, -3.667322719249003e-02, 1.460945935580226e-01, 4.463107297978683e+00, -1.715905012882249e+01, -1.953618772453068e+06, 5.707140935484113e+04, 1.214172113061879e+05, 2.025300857656513e+06
102, -1.171021000000000e-01, 7.467748000000000e-03, -4.743325025668571e-04, 2.905746346275427e-03, -4.238439175013024e-02, 1.938961984378568e-01, 6.706969058757309e+00, -2.522181431239429e+01, -1.659395769242077e+06, 5.562282940149130e+04, 1.111082369833404e+05, 1.729355069092387e+06
103, -1.049722000000000e-01, 7.499411000000000e-03, -5.223361188651354e-04, 3.599643344969550e-03, -4.812433360712057e-02, 2.495296030341342e-01, 9.309346110991758e+00, -3.428723134836814e+01, -1.401497160630393e+06, 5.408617295529745e+04, 1.026986793895140e+05, 1.470003712922465e+06
104, -9.253454000000000e-02, 7.495851000000000e-03, -5.674430378331019e-04, 4.348974197251589e-03, -5.383146942704360e-02, 3.134392674845234e-01, 1.228216859580763e+01, -4.385210926746058e+01, -1.173611972564813e+06, 5.249338147180388e+04, 9.537145621050752e+04, 1.240853415128519e+06
105, -7.982535000000000e-02, 7.458289000000000e-03, -6.095496614836615e-04, 5.147491787218265e-03, -5.943859355618958e-02, 3.860412383607408e-01, 1.563566922864372e+01, -5.341008499325378e+01, -9.711691940845099e+05, 5.082249847929713e+04, 8.847348005343863e+04, 1.037196821418433e+06
106, -6.688208000000000e-02, 7.388282000000000e-03, -6.485702883546547e-04, 5.988693843955679e-03, -6.484979494490915e-02, 4.676502195674413e-01, 1.942291436444911e+01, -6.262982064132900e+01, -7.909288499570093e+05, 4.904120923046391e+04, 8.150751175493404e+04, 8.556422139079688e+05
107, -5.374259000000000e-02, 7.287529000000000e-03, -6.844427780143675e-04, 6.865929724505325e-03, -6.992846906022891e-02, 5.586486907105317e-01, 2.376633236138397e+01, -7.105367866124405e+01, -6.308010984310937e+05, 4.714923852396289e+04, 7.405457392207526e+04, 6.939401840595450e+05
108, -4.044550000000000e-02, 7.157976000000000e-03, -7.171498497974214e-04, 7.772451681728384e-03, -7.451140461278258e-02, 6.594837975832477e-01, 2.879564258519307e+01, -7.804239954431691e+01, -4.897145284092820e+05, 4.526070311683969e+04, 6.572004033383081e+04, 5.508856443513017e+05
109, -2.702974000000000e-02, 7.001662000000000e-03, -7.467283886882918e-04, 8.701536123654673e-03, -7.840365104478580e-02, 7.704577595742926e-01, 3.466319845243318e+01, -8.326915436321718e+01, -3.676592077010415e+05, 4.356059977411132e+04, 5.607533828506528e+04, 4.262387879053709e+05
110, -1.353473000000000e-02, 6.820770000000000e-03, -7.732938188511966e-04, 9.646589124847872e-03, -8.138198457874476e-02, 8.914583330271248e-01, 4.156832954472522e+01, -8.691730290205479e+01, -2.656866166988575e+05, 4.220050494473266e+04, 4.461290767672259e+04, 3.205553396832783e+05
111, -9.637083000000000e-13, 6.617531000000000e-03, -7.970558445206689e-04, 1.060133099897815e-02, -8.324241961708767e-02, 1.021923967501565e+00, 4.965688241457845e+01, -8.961654077405927e+01, -1.860829811580643e+05, 4.043962693444108e+04, 3.122180653017269e+04, 2.349716935910811e+05
112, 1.353473000000000e-02, 6.394229000000000e-03, -8.183366334072670e-04, 1.156002061235824e-02, -8.385333089062880e-02, 1.161004879584508e+00, 5.895497329881246e+01, -9.236510866490781e+01, -1.297817876226188e+05, 3.666783998967539e+04, 1.652793699392612e+04, 1.697002337575649e+05
113, 2.702974000000000e-02, 6.153156000000000e-03, -8.374923741459223e-04, 1.251777848268676e-02, -8.313938160702833e-02, 1.307951701176270e+00, 6.939716564343223e+01, -9.595203941033864e+01, -9.804316412381036e+04, 1.910043222984103e+04, 5.234656917617487e+03, 1.176104957002046e+05
114, 4.044550000000000e-02, 5.896584000000000e-03, -8.548640903551360e-04, 1.347113067198590e-02, -8.106025982813297e-02, 1.462494258985948e+00, 8.085428454269143e+01, -1.003734959993589e+02, -8.268165977867441e+04, -6.823456706874185e+01, 1.624317891889395e+03, 8.267727414259140e+04
115, 5.374259000000000e-02, 5.626765000000000e-03, -8.707560709629289e-04, 1.441731736652184e-02, -7.761825593256333e-02, 1.624452051758416e+00, 9.316177344280818e+01, -1.050914257686590e+02, -7.075057646979668e+04, -1.796345031643464e+03, 1.984198028140879e+03, 6.906832993844509e+04
116, 6.688208000000000e-02, 5.345890000000000e-03, -8.853019513349890e-04, 1.535319993444030e-02, -7.279290100416314e-02, 1.793022908314422e+00, 1.062057808614110e+02, -1.097994854131551e+02, -5.954823290624819e+04, 2.210243611316574e+02, 2.285703837847177e+03, 5.994382272120821e+04
117, 7.982535000000000e-02, 5.056110000000000e-03, -8.985109162440542e-04, 1.627547758156162e-02, -6.654669977229688e-02, 1.967128579132395e+00, 1.199354531862453e+02, -1.144182762622511e+02, -4.782871293224243e+04, 9.257063650796063e+02, 2.071233478899401e+03, 4.893008720118473e+04
118, 9.253454000000000e-02, 4.759500000000000e-03, -9.103973946747927e-04, 1.718090485166213e-02, -5.889900445409835e-02, 2.145695897084143e+00, 1.342913726752250e+02, -1.189069056112243e+02, -3.621725514935151e+04, 3.435153108352437e+02, 1.589274378526653e+03, 3.669867993325413e+04
119, 1.049722000000000e-01, 4.458091000000000e-03, -9.209974175824336e-04, 1.806631572175409e-02, -4.991670575584495e-02, 2.327647872200499e+00, 1.491853161539385e+02, -1.232112509511479e+02, -2.497637762902713e+04, -3.110119484547204e+02, 1.113542552925280e+03, 2.476570556687333e+04
120, 1.171021000000000e-01, 4.153842000000000e-03, -9.303553702356886e-04, 1.892866540151609e-02, -3.968806574918615e-02, 2.511859935326353e+00, 1.645136211241790e+02, -1.272892857580559e+02, -1.412119284378350e+04, -7.039277534558935e+02, 6.355773093712414e+02, 1.347734530866054e+04
121, 1.288884000000000e-01, 3.848675000000000e-03, -9.385163413665167e-04, 1.976496519067245e-02, -2.831791908608983e-02, 2.697134621084834e+00, 1.801650394877603e+02, -1.311330808465715e+02, -3.685899143342806e+03, -1.075834414326275e+03, 1.194895349692397e+02, 2.620982427549792e+03
122, 1.402968000000000e-01, 3.544456000000000e-03, -9.455289875417015e-04, 2.057237887899642e-02, -1.593003708913709e-02, 2.882240749703435e+00, 1.960230292771440e+02, -1.347679165676827e+02, 6.269274903974920e+03, -1.507722882061033e+03, -4.296934371473872e+02, 7.824336416829113e+03
123, 1.512935000000000e-01, 3.243024000000000e-03, -9.514469015718013e-04, 2.134816291640897e-02, -2.668773739125774e-03, 3.065920085522431e+00, 2.119640336809731e+02, -1.382429738910905e+02, 1.568029381087763e+04, -1.941005255616793e+03, -1.003913229810991e+03, 1.773531922133896e+04
124, 1.618466000000000e-01, 2.946179000000000e-03, -9.563310921930063e-04, 2.208977450531955e-02, 1.130533846503257e-02, 3.246923339762636e+00, 2.278612637111587e+02, -1.416267429138122e+02, 2.446316028126633e+04, -2.395945735787433e+03, -1.595097519081906e+03, 2.704790048075560e+04
125, 1.719248000000000e-01, 2.655704000000000e-03, -9.602479030293768e-04, 2.279479069108220e-02, 2.581814932820570e-02, 3.423996708166842e+00, 2.435855938220604e+02, -1.450055936993093e+02, 3.254593566678998e+04, -2.878562382412412e+03, -2.196512995384708e+03, 3.569585045062688e+04
126, 1.814989000000000e-01, 2.373364000000000e-03, -9.632723524550483e-04, 2.346102309716293e-02, 4.068644368408325e-02, 3.595917107979483e+00, 2.590100868767182e+02, -1.484828864331795e+02, 3.986425518624247e+04, -3.369737226112529e+03, -2.802787360170872e+03, 4.359587787689226e+04
127, 1.905404000000000e-01, 2.100903000000000e-03, -9.654841229291164e-04, 2.408642802036728e-02, 5.571959518701575e-02, 3.761478304813684e+00, 2.740093756263752e+02, -1.521751525837603e+02, 4.633683568835506e+04, -3.878125198268575e+03, -3.414114488178995e+03, 5.067708562850390e+04
128, 1.990233000000000e-01, 1.840017000000000e-03, -9.669697077158521e-04, 2.466924010164419e-02, 7.072500335688914e-02, 3.919532756868271e+00, 2.884638362512164e+02, -1.562078875164940e+02, 5.186559262360210e+04, -4.406529588945855e+03, -4.020646075237211e+03, 5.684376938375230e+04
129, 2.069223000000000e-01, 1.592393000000000e-03, -9.678205573281172e-04, 2.520785716113134e-02, 8.550812809536690e-02, 4.068967346666292e+00, 3.022574690232285e+02, -1.607072941629717e+02, 5.633163132700064e+04, -4.956752951855293e+03, -4.608259960306081e+03, 6.197749823088825e+04
130, 2.142143000000000e-01, 1.359751000000000e-03, -9.681389324867371e-04, 2.570095302956380e-02, 9.987550237419374e-02, 4.208739694229019e+00, 3.152807624886814e+02, -1.657890546250608e+02, 5.956414927869543e+04, -5.539389917992772e+03, -5.145930493022053e+03, 6.591201118529744e+04
131, 2.208774000000000e-01, 1.143720000000000e-03, -9.680269637189190e-04, 2.614742078568540e-02, 1.136369640503530e-01, 4.337868842305665e+00, 3.274287313396025e+02, -1.715404715853426e+02, 6.131520454847035e+04, -6.137364138491228e+03, -5.591582535191224e+03, 6.837332962099103e+04
132, 2.268939000000000e-01, 9.455361000000000e-04, -9.675730446536957e-04, 2.654658800497771e-02, 1.266165919128346e-01, 4.455505303529623e+00, 3.386058805643989e+02, -1.780002726907497e+02, 6.130269331376933e+04, -6.730374448825236e+03, -5.852402918133866e+03, 6.903260670766034e+04
133, 2.322460000000000e-01, 7.665862000000001e-04, -9.668773809404892e-04, 2.689793967276462e-02, 1.386363279117866e-01, 4.560861244211417e+00, 3.487185849113717e+02, -1.851269381385159e+02, 5.929531120436428e+04, -7.313007558177702e+03, -5.753312862771225e+03, 6.759490042865746e+04
134, 2.369133000000000e-01, 6.092434000000000e-04, -9.660986392098665e-04, 2.720096560683224e-02, 1.494942209925845e-01, 4.653172705443016e+00, 3.576712432716488e+02, -1.927602117671912e+02, 5.500543917079568e+04, -7.882968753878587e+03, -5.089285579902902e+03, 6.370679054979511e+04
135, 2.408804000000000e-01, 4.750271000000000e-04, -9.653472160555688e-04, 2.745566458333893e-02, 1.590117621336429e-01, 4.731857172059575e+00, 3.653788881241362e+02, -2.006010049146006e+02, 4.803678954528826e+04, -8.317440215204282e+03, -3.890817416468031e+03, 5.688895369552464e+04
136, 2.441551000000000e-01, 3.610512000000000e-04, -9.644946964802262e-04, 2.766366764053292e-02, 1.671391713256838e-01, 4.796878132332044e+00, 3.717974856561004e+02, -2.082495969991520e+02, 3.858212755723792e+04, -8.644602105714406e+03, -2.249090013024161e+03, 4.744046393327454e+04
137, 2.467325000000000e-01, 2.671960000000000e-04, -9.635565774567056e-04, 2.782582378438253e-02, 1.737567732629537e-01, 4.848041590700536e+00, 3.768706408183228e+02, -2.151605505969756e+02, 2.794903420866185e+04, -8.869728146941397e+03, 6.211115164179791e+02, 3.683971198939665e+04
138, 2.485345000000000e-01, 2.088133000000000e-04, -9.633588821646275e-04, 2.793832706710089e-02, 1.783122495378267e-01, 4.883798958640666e+00, 3.804477180853862e+02, -2.204908703304279e+02, 1.412559566288202e+04, -9.911441621208316e+03, 3.053904646536490e+03, 2.480089707565631e+04
139, 2.495362000000000e-01, 1.903924000000000e-04, -9.641351997689117e-04, 2.800057790669776e-02, 1.805866072273947e-01, 4.903688702512508e+00, 3.824736817944975e+02, -2.235879354410196e+02, -1.760269499930440e+03, -3.026065864678244e+03, -1.380880517801651e+03, 3.038019824620204e+03
140, 2.502041000000000e-01, 1.235855000000000e-04, -9.612855643433454e-04, 2.804214864033780e-02, 1.831890463271988e-01, 4.916842369580043e+00, 3.836466840262939e+02, -2.257917104730600e+02, -9.395702660063580e+03, -1.493347107152274e+03, 2.529370071703630e+03, 9.382860711059728e+03
141, -1.990233000000000e-01, 2.947129000000000e-03, 0.000000000000000e+00, 0.000000000000000e+00, 0.000000000000000e+00, 0.000000000000000e+00, 0.000000000000000e+00, 0.000000000000000e+00, -2.789770489023865e+06, -9.596320189358977e+05, 1.623632037720868e+06, 3.727483171705862e+06
142, -1.905404000000000e-01, 3.108244000000000e-03, -2.963558634706321e-05, 5.396418062678519e-05, -2.588427726471803e-03, 2.353949904755842e-03, -5.819339298884718e-01, 9.274418976733422e-01, -2.439784962504725e+06, -1.694975204424563e+04, 5.761748969613480e+05, 2.682916417744085e+06
143, -1.814989000000000e-01, 3.252287000000000e-03, -6.462510139110284e-05, 2.131536599939824e-04, -5.690679951666015e-03, 1.083787612833210e-02, -1.099858529050867e+00, 1.133628320915682e+00, -2.259983521984169e+06, 1.049605278531311e+05, 5.701521204310701e+05, 2.625500737114548e+06
144, -1.719248000000000e-01, 3.378620000000000e-03, -9.932494503678292e-05, 4.622491425080642e-04, -8.892944315676532e-03, 2.505990298721507e-02, -1.294155951327752e+00, 2.409764539369132e-01, -1.932205327153513e+06, 4.958545055387339e+04, 4.520288394512486e+05, 2.178259620290616e+06
145, -1.618466000000000e-01, 3.486796000000000e-03, -1.332966608844966e-04, 7.971966915909240e-04, -1.215430410450253e-02, 4.533642244278372e-02, -1.076054988544387e+00, -2.005217765294687e+00, -1.632845051500982e+06, 5.574939426603687e+04, 3.818711041479371e+05, 1.853281781869094e+06
146, -1.512935000000000e-01, 3.576470000000000e-03, -1.673074746827821e-04, 1.214156049981542e-03, -1.551969738970011e-02, 7.199352342004410e-02, -4.362377274514408e-01, -5.767804131799098e+00, -1.397008758711720e+06, 6.001368080056240e+04, 3.270303535949447e+05, 1.597094173157006e+06
147, -1.402968000000000e-01, 3.647516000000000e-03, -2.014626700701289e-04, 1.708467264077422e-03, -1.898984573729401e-02, 1.053479843634202e-01, 6.336776475552468e-01, -1.111366735308531e+01, -1.196858079254919e+06, 5.931361432286555e+04, 2.842112908971138e+05, 1.378793514359454e+06
148, -1.288884000000000e-01, 3.699915000000000e-03, -2.357783711593147e-04, 2.275142443966048e-03, -2.255236947148545e-02, 1.457438823534975e-01, 2.142706077476347e+00, -1.799406796422950e+01, -1.024239745970146e+06, 5.882369233557585e+04, 2.496309493261146e+05, 1.192597524247154e+06
149, -1.171021000000000e-01, 3.733874000000000e-03, -2.702304565975286e-04, 2.908813418890769e-03, -2.618242151832609e-02, 1.935526771900494e-01, 4.104365308561751e+00, -2.622291243949179e+01, -8.746052223408350e+05, 5.765667347168333e+04, 2.212071134220182e+05, 1.031912104056328e+06
150, -1.049722000000000e-01, 3.749705000000000e-03, -3.047296914739343e-04, 3.603804123860264e-03, -2.983957324316422e-02, 2.491854410692129e-01, 6.542643631507562e+00, -3.545179274366637e+01, -7.434030456124042e+05, 5.615056775733738e+04, 1.971178705000049e+05, 8.914638523992080e+05
151, -9.253454000000000e-02, 3.747926000000000e-03, -3.391483088753040e-04, 4.354099953660445e-03, -3.347413018150903e-02, 3.130772962280471e-01, 9.481377004252163e+00, -4.519173123174230e+01, -6.274919353919572e+05, 5.436698486081887e+04, 1.760735576045794e+05, 7.674237277270062e+05
152, -7.982535000000000e-02, 3.729145000000000e-03, -3.733274443669686e-04, 5.153442391788715e-03, -3.703284263832463e-02, 3.856366115822580e-01, 1.293138098508994e+01, -5.494990843279442e+01, -5.245146550017772e+05, 5.234833318000996e+04, 1.570346393202740e+05, 6.568184063497420e+05
153, -6.688208000000000e-02, 3.694141000000000e-03, -4.070920919168137e-04, 5.995322185404653e-03, -4.043515538165210e-02, 4.671998098141490e-01, 1.693851211335031e+01, -6.434956602110552e+01, -4.328003363746967e+05, 5.010543954397111e+04, 1.392110785011054e+05, 5.574198470859953e+05
154, -5.374259000000000e-02, 3.643765000000000e-03, -4.402595689915407e-04, 6.873085502221929e-03, -4.356357031250309e-02, 5.581536126027182e-01, 2.160616710266819e+01, -7.291758147308585e+01, -3.512571396320812e+05, 4.766309011809829e+04, 1.219492809902515e+05, 4.675723026870746e+05
155, -4.044550000000000e-02, 3.578988000000000e-03, -4.726551474710391e-04, 7.779984844482123e-03, -4.628696412036709e-02, 6.589284694421942e-01, 2.702735642503452e+01, -8.005896863020956e+01, -2.793119034190353e+05, 4.513152754678880e+04, 1.046664862647517e+05, 3.861137569226371e+05
156, -2.702974000000000e-02, 3.500831000000000e-03, -5.041240709509714e-04, 8.709300201670253e-03, -4.846733015988736e-02, 7.698068962973108e-01, 3.328534063187826e+01, -8.545573655820652e+01, -2.169297843092254e+05, 4.267065938179473e+04, 8.674896713565569e+04, 3.122401696787055e+05
157, -1.353473000000000e-02, 3.410385000000000e-03, -5.345501939046892e-04, 9.654445294646662e-03, -4.995300937003130e-02, 8.906780352013990e-01, 4.049197900521828e+01, -8.928010021609168e+01, -1.646436099102706e+05, 4.038776270608368e+04, 6.754634596295815e+04, 2.455359427227241e+05
158, -9.637083000000000e-13, 3.308766000000000e-03, -5.638733122631725e-04, 1.060915527441143e-02, -5.059502335099475e-02, 1.020992384191735e+00, 4.873481393602987e+01, -9.216527988897874e+01, -1.235064357408122e+05, 3.781883169689655e+04, 4.679642093948890e+04, 1.865086109669781e+05
159, 1.353473000000000e-02, 3.197115000000000e-03, -5.921009873072082e-04, 1.156771830005897e-02, -5.027032139370330e-02, 1.159927409570177e+00, 5.804528796545711e+01, -9.507504758274163e+01, -9.360293780437420e+04, 3.293354470089456e+04, 2.545248228440899e+04, 1.363920702334223e+05
160, 2.702974000000000e-02, 3.076578000000000e-03, -6.192590972493590e-04, 1.252532239442741e-02, -4.887236828070585e-02, 1.306764930129890e+00, 6.842628683934082e+01, -9.876161027860886e+01, -7.615194480020416e+04, 1.741261523489716e+04, 9.253975867739246e+03, 9.537751921708217e+04
161, 4.044550000000000e-02, 2.948292000000000e-03, -6.454065315662933e-04, 1.347847111959927e-02, -4.633431997852916e-02, 1.461210427449293e+00, 7.983247538858720e+01, -1.032437594232941e+02, -6.765222685675988e+04, 1.333986069900391e+03, 3.419672705972045e+03, 6.932441286896261e+04
162, 5.374259000000000e-02, 2.813383000000000e-03, -6.706652485245567e-04, 1.442435795689842e-02, -4.266927999853332e-02, 1.623041501541464e+00, 9.214137344554585e+01, -1.080294639241039e+02, -6.123294516356849e+04, -6.575976583152061e+02, 3.460430938130316e+03, 6.096942721145142e+04
163, 6.688208000000000e-02, 2.672945000000000e-03, -6.950776529897660e-04, 1.535990157320069e-02, -3.789139557619581e-02, 1.791497878962292e+00, 1.052301192920053e+02, -1.127902197122675e+02, -5.547789688599521e+04, 1.099915464992334e+03, 3.612851945107755e+03, 5.703735308666273e+04
164, 7.982535000000000e-02, 2.528055000000000e-03, -7.185792343457592e-04, 1.628182589384967e-02, -3.197947435849091e-02, 1.965518910376895e+00, 1.190257092212717e+02, -1.174261469257291e+02, -4.929552361697575e+04, 1.624575996076480e+03, 2.986865758179416e+03, 5.126930868299962e+04
165, 9.253454000000000e-02, 2.379750000000000e-03, -7.410988839429217e-04, 1.718688729014708e-02, -2.494247709277575e-02, 2.144023824207352e+00, 1.334577114544807e+02, -1.218970434796930e+02, -4.292949533132509e+04, 1.023388072267882e+03, 2.043153220387730e+03, 4.414242698150795e+04
166, 1.049722000000000e-01, 2.229046000000000e-03, -7.625842637051546e-04, 1.807191892205496e-02, -1.683018111924350e-02, 2.325930996069804e+00, 1.484324987771921e+02, -1.261542287145439e+02, -3.661620508416850e+04, 3.589778423088701e+02, 1.156346039126754e+03, 3.704743846874275e+04
167, 1.171021000000000e-01, 2.076921000000000e-03, -7.829930748689027e-04, 1.893387871850018e-02, -7.713632386822211e-03, 2.510117033585574e+00, 1.638412389800337e+02, -1.301585335596856e+02, -3.039197706195271e+04, -8.330025946103399e+01, 3.197315385276825e+02, 3.031542185991833e+04
168, 1.288884000000000e-01, 1.924338000000000e-03, -8.022853750194659e-04, 1.976978238466197e-02, 2.321253476097129e-03, 2.695386544823714e+00, 1.795672805326211e+02, -1.339034373503017e+02, -2.427478687666826e+04, -5.055621156103977e+02, -5.290386391117281e+02, 2.379276304400939e+04
169, 1.402968000000000e-01, 1.772228000000000e-03, -8.204260570634506e-04, 2.057679756309925e-02, 1.317327035319549e-02, 2.880508805722395e+00, 1.954897225328402e+02, -1.374162582276404e+02, -1.829670428196934e+04, -9.808917976902883e+02, -1.381573432558617e+03, 1.753488929502896e+04
170, 1.512935000000000e-01, 1.621512000000000e-03, -8.373859866371340e-04, 2.135218417543306e-02, 2.472418736003146e-02, 3.064224871574796e+00, 2.114822393978180e+02, -1.407490636837983e+02, -1.249857446347504e+04, -1.460479100958900e+03, -2.225587178776517e+03, 1.190178568086898e+04
171, 1.618466000000000e-01, 1.473089000000000e-03, -8.531450933770947e-04, 2.209340302780059e-02, 3.684211357913680e-02, 3.245284249473337e+00, 2.274165427169351e+02, -1.439736363561647e+02, -6.939554097271327e+03, -1.958652217988714e+03, -3.052315837439632e+03, 7.878826779221656e+03
172, 1.719248000000000e-01, 1.327852000000000e-03, -8.676902832839076e-04, 2.279803467180281e-02, 4.938328742509657e-02, 3.422431596882716e+00, 2.431629241082002e+02, -1.471797894526210e+02, -1.672444067693713e+03, -2.480727555579002e+03, -3.852777703814680e+03, 7.747832363754011e+03
173, 1.814989000000000e-01, 1.186682000000000e-03, -8.810190075754153e-04, 2.346389409150392e-02, 6.219643845578182e-02, 3.594441826246557e+00, 2.585947338100425e+02, -1.504744630625431e+02, 3.252803780920656e+03, -3.010234345665971e+03, -4.620489809399925e+03, 1.116339334119120e+04
174, 1.905404000000000e-01, 1.050452000000000e-03, -8.931361420817975e-04, 2.408894083254150e-02, 7.512391533864848e-02, 3.760106226588217e+00, 2.735878410006526e+02, -1.539778801598374e+02, 7.774800016855024e+03, -3.554475766453186e+03, -5.358990386576324e+03, 1.559575588510938e+04
175, 1.990233000000000e-01, 9.200083000000000e-04, -9.040571023023777e-04, 2.467141256371715e-02, 8.800658876031209e-02, 3.918274462609781e+00, 2.880248617812392e+02, -1.578192047339087e+02, 1.182299602986833e+04, -4.114352328966354e+03, -6.058252785873095e+03, 2.002020928914099e+04
176, 2.069223000000000e-01, 7.961963000000000e-04, -9.138053891665330e-04, 2.520970992793372e-02, 1.006836847831729e-01, 4.067830416122677e+00, 3.017931139797892e+02, -1.621282054947909e+02, 1.531612534013437e+04, -4.690995686441080e+03, -6.706142872805362e+03, 2.408680760694431e+04
177, 2.142143000000000e-01, 6.798753000000000e-04, -9.224170528121542e-04, 2.570250940908497e-02, 1.129960774224033e-01, 4.207728545258377e+00, 3.147875010478659e+02, -1.670239999154576e+02, 1.814396516882336e+04, -5.297258811730904e+03, -7.273582536344096e+03, 2.758824012797032e+04
178, 2.208774000000000e-01, 5.718598000000000e-04, -9.299344738675170e-04, 2.614870635642699e-02, 1.247870394689183e-01, 4.336984753617008e+00, 3.269084791745136e+02, -1.725970116831402e+02, 2.016200445992780e+04, -5.914513440382017e+03, -7.724887740578884e+03, 3.030974015433590e+04
179, 2.268939000000000e-01, 4.727680000000000e-04, -9.364032060365163e-04, 2.654762992458969e-02, 1.359099015968250e-01, 4.454746757257375e+00, 3.380667430285421e+02, -1.788884518092871e+02, 2.120444620742646e+04, -6.518107695806559e+03, -7.957815509958011e+03, 3.196634645497939e+04
180, 2.322460000000000e-01, 3.832931000000000e-04, -9.418799306611846e-04, 2.689876658027249e-02, 1.462163946259700e-01, 4.560223894567374e+00, 3.481747092914626e+02, -1.858591599218162e+02, 2.112585791168113e+04, -7.107463792318811e+03, -7.793088330870905e+03, 3.224979623769086e+04
181, 2.369133000000000e-01, 3.046217000000000e-04, -9.464532000886646e-04, 2.720160828029523e-02, 1.555426846062089e-01, 4.652648590667269e+00, 3.571409193506288e+02, -1.933519959541259e+02, 1.976029581476194e+04, -7.665455729124109e+03, -7.029680153270747e+03, 3.081943315468541e+04
182, 2.408804000000000e-01, 2.375136000000000e-04, -9.501981326630884e-04, 2.745615448490699e-02, 1.637380140220197e-01, 4.731435322649601e+00, 3.648821443482984e+02, -2.010701388783490e+02, 1.691570303815885e+04, -8.093353342495219e+03, -5.708073198272803e+03, 2.749147685371041e+04
183, 2.441551000000000e-01, 1.805256000000000e-04, -9.530980347109656e-04, 2.766403206712253e-02, 1.707338648451973e-01, 4.796548325621071e+00, 3.713562757718191e+02, -2.086117885075912e+02, 1.264743177459814e+04, -8.463785287722996e+03, -3.869613083598539e+03, 2.248508633560180e+04
184, 2.467325000000000e-01, 1.335980000000000e-04, -9.551952960540129e-04, 2.782608850627763e-02, 1.764161660169907e-01, 4.847791839726000e+00, 3.765017524557937e+02, -2.154322067218801e+02, 7.644517844993377e+03, -8.628443287371751e+03, -7.527286112583479e+02, 1.634244979996248e+04
185, 2.485345000000000e-01, 1.044067000000000e-04, -9.568624986888403e-04, 2.793853124339701e-02, 1.803892552709847e-01, 4.883600828952912e+00, 3.801361926258941e+02, -2.207051821543691e+02, 3.879966487102551e+02, -9.710931753644620e+03, 1.684925132121047e+03, 1.064632545432003e+04
186, 2.495362000000000e-01, 9.519618000000000e-05, -9.582249212283046e-04, 2.800076152244932e-02, 1.824797482594518e-01, 4.903506765733883e+00, 3.821814031686404e+02, -2.237849649846836e+02, -7.946452623771511e+03, -1.594085760529180e+03, -3.621318029010355e+03, 9.633708623067285e+03
187, 2.502041000000000e-01, 4.696250000000000e-05, -9.565318433666652e-04, 2.804229616418559e-02, 1.847123697328328e-01, 4.916695820278332e+00, 3.834093760871627e+02, -2.259504401877330e+02, -1.442241495314920e+04, -3.056772252904378e+03, 7.516337750314196e+02, 1.146462591263667e+04
188, -1.990233000000000e-01, 0.000000000000000e+00, 0.000000000000000e+00, 0.000000000000000e+00, 0.000000000000000e+00, 0.000000000000000e+00, 0.000000000000000e+00, 0.000000000000000e+00, -6.565978899328943e+04, -1.166855329915791e+04, 1.580552764597917e+06, 3.161566576911555e+06
189, -1.905404000000000e-01, 0.000000000000000e+00, -6.650280912288456e-07, 5.243810572107162e-05, -8.604215515324153e-04, 2.152422299603421e-03, -7.166009700684599e-01, 7.864343731323746e-01, -8.359663617661179e+04, -2.175258050892410e+04, 6.496784044610942e+05, 1.300827738062915e+06
190, -1.814989000000000e-01, 0.000000000000000e+00, -2.532332756299485e-06, 2.117389976607872e-04, -1.905904950348464e-03, 1.058913068319450e-02, -1.458594976832237e+00, 8.945684133334277e-01, -8.683277275556412e+04, 1.507002323608869e+04, 7.066931770276374e+05, 1.417055103254838e+06
191, -1.719248000000000e-01, 0.000000000000000e+00, -6.428385227268682e-06, 4.618156011778094e-04, -3.050136303844373e-03, 2.484138834835476e-02, -1.977650899245056e+00, -7.731985107692596e-02, -8.968027377851401e+04, 3.214192501211161e+04, 5.699233045011116e+05, 1.146338056670915e+06
192, -1.618466000000000e-01, 0.000000000000000e+00, -1.275396297079912e-05, 7.977620845216947e-04, -4.266110940602609e-03, 4.514661713702027e-02, -2.156738246943799e+00, -2.427130496487650e+00, -8.957805364345534e+04, 4.178619333985004e+04, 4.866685696719589e+05, 9.821617749697306e+05
193, -1.512935000000000e-01, 0.000000000000000e+00, -2.181154259508847e-05, 1.215743460515710e-03, -5.568932848303061e-03, 7.182645302013037e-02, -1.941985079663108e+00, -6.320052512438158e+00, -8.754101524138459e+04, 4.776502885809573e+04, 4.226078223829080e+05, 8.559773429984840e+05
194, -1.402968000000000e-01, 0.000000000000000e+00, -3.379331916596757e-05, 1.711095261451356e-03, -6.964054875207126e-03, 1.051996394186482e-01, -1.285321147908629e+00, -1.181369711321364e+01, -8.496680758202264e+04, 5.107309262302972e+04, 3.693527566229241e+05, 7.511276121589544e+05
195, -1.288884000000000e-01, 0.000000000000000e+00, -4.878260386048127e-05, 2.278776448989442e-03, -8.442161875104701e-03, 1.456090758483387e-01, -1.384019176312838e-01, -1.885089563520315e+01, -8.228351611756709e+04, 5.265852635944825e+04, 3.251987088383964e+05, 6.642485647319903e+05
196, -1.171021000000000e-01, 0.000000000000000e+00, -6.676972237350632e-05, 2.913389438461637e-03, -9.981558710369430e-03, 1.934259517049238e-01, 1.547913561573819e+00, -2.723710396699161e+01, -7.961565399437377e+04, 5.303400084630164e+04, 2.876435912236370e+05, 5.903823110641727e+05
197, -1.049722000000000e-01, 0.000000000000000e+00, -8.766580737611001e-05, 3.609234651421283e-03, -1.154914373888554e-02, 2.490585079595447e-01, 3.823259083300463e+00, -3.662171463057078e+01, -7.704214051046452e+04, 5.252950374084975e+04, 2.549903777790258e+05, 5.261836010686292e+05
198, -9.253454000000000e-02, 0.000000000000000e+00, -1.113121253862390e-04, 4.360279150563523e-03, -1.310605389652908e-02, 3.129335333732119e-01, 6.724585697974439e+00, -4.652775111515403e+01, -7.458233229031201e+04, 5.136162771745351e+04, 2.259088889222413e+05, 4.690428396626090e+05
199, -7.982535000000000e-02, 0.000000000000000e+00, -1.374918716255984e-04, 5.160251618801823e-03, -1.461017964981334e-02, 3.854542584676864e-01, 1.026965944479778e+01, -5.647030286889469e+01, -7.222389556850093e+04, 4.966272684028721e+04, 1.993525059066579e+05, 4.169196987038138e+05
200, -6.688208000000000e-02, 0.000000000000000e+00, -1.659381490282727e-04, 6.002634842869416e-03, -1.599629916590706e-02, 4.669719297634983e-01, 1.449804213583681e+01, -6.604014465055573e+01, -6.993925361123358e+04, 4.751739225158593e+04, 1.745194756280424e+05, 3.682719825771319e+05
201, -5.374259000000000e-02, 0.000000000000000e+00, -1.963455039442438e-04, 6.880771456848357e-03, -1.717158187242701e-02, 5.578759116219745e-01, 1.948537392601473e+01, -7.475377832565032e+01, -6.769304084990674e+04, 4.500108921839388e+04, 1.507538618881980e+05, 3.218802175478862e+05
202, -4.044550000000000e-02, 0.000000000000000e+00, -2.283802704902785e-04, 7.787914427095897e-03, -1.804132440841896e-02, 6.585819800522649e-01, 2.528310164093060e+01, -8.204961010213611e+01, -6.544395374028305e+04, 4.223846896837317e+04, 1.274799140890095e+05, 2.767670828421811e+05
203, -2.702974000000000e-02, 0.000000000000000e+00, -2.616939702599467e-04, 8.717348123399275e-03, -1.852056276895755e-02, 7.693563645159489e-01, 3.191278869094148e+01, -8.761908201591640e+01, -6.315446234007251e+04, 3.937719998809343e+04, 1.040969821189795e+05, 2.320721192321335e+05
204, -1.353473000000000e-02, 0.000000000000000e+00, -2.959369607951348e-04, 9.662495025592806e-03, -1.852033910737505e-02, 8.900892572557288e-01, 3.940891445515761e+01, -9.162570648504814e+01, -6.080245241875182e+04, 3.652323089369290e+04, 7.998797740896270e+04, 1.872554264958460e+05
205, -9.637083000000000e-13, 0.000000000000000e+00, -3.307753856086677e-04, 1.061710591673951e-02, -1.793960821366522e-02, 1.020243932174056e+00, 4.780829927928564e+01, -9.469951778514005e+01, -5.833407029006945e+04, 3.335309591053250e+04, 5.490147843548543e+04, 1.430497318540133e+05
206, 1.353473000000000e-02, 0.000000000000000e+00, -3.659028556327093e-04, 1.157549854505643e-02, -1.666541350948930e-02, 1.159023863326362e+00, 5.714846003965989e+01, -9.777252896271511e+01, -5.525244446860919e+04, 2.805032100498970e+04, 3.014665942905730e+04, 1.028330444676014e+05
207, 2.702974000000000e-02, 0.000000000000000e+00, -4.010292200329852e-04, 1.253291180174733e-02, -1.457331221641844e-02, 1.305736294178043e+00, 6.748618586418092e+01, -1.015655060829352e+02, -5.318947656523325e+04, 1.516629852614423e+04, 1.161985683440255e+04, 7.219831216691308e+04
208, 4.044550000000000e-02, 0.000000000000000e+00, -4.359446435608881e-04, 1.348582938357856e-02, -1.158034913391526e-02, 1.460066915688364e+00, 7.884448266385849e+01, -1.061153619329011e+02, -5.258496172620756e+04, 2.463171737875493e+03, 4.370511027145799e+03, 5.573780103693643e+04
209, 5.374259000000000e-02, 0.000000000000000e+00, -4.705767474040451e-04, 1.443140732246769e-02, -7.701557655376112e-03, 1.621761705196170e+00, 9.114699218042361e+01, -1.109670519517128e+02, -5.181081898350921e+04, 5.295631388463675e+02, 3.897734328110477e+03, 5.291771850981788e+04
210, 6.688208000000000e-02, 0.000000000000000e+00, -5.048583527658094e-04, 1.536660560335383e-02, -2.973939267859271e-03, 1.790092140464869e+00, 1.042744443204818e+02, -1.157772860522633e+02, -5.133725241087982e+04, 1.863788835346721e+03, 3.827619355689946e+03, 5.374898575239264e+04
211, 7.982535000000000e-02, 0.000000000000000e+00, -5.386508118898335e-04, 1.628817016478985e-02, 2.604722899368306e-03, 1.964014479690216e+00, 1.181338171038731e+02, -1.204291078806401e+02, -5.058523669717037e+04, 2.187465835115794e+03, 2.821588528595456e+03, 5.307356761948427e+04
212, 9.253454000000000e-02, 0.000000000000000e+00, -5.718020112814066e-04, 1.719285963490068e-02, 9.030762797250680e-03, 2.142443156653046e+00, 1.326402918553052e+02, -1.248822661837115e+02, -4.948493818408412e+04, 1.578164487078637e+03, 1.463360875070477e+03, 5.114690757620109e+04
213, 1.049722000000000e-01, 0.000000000000000e+00, -6.041718485918560e-04, 1.807750707122729e-02, 1.627155126930135e-02, 2.324292887506879e+00, 1.476937805690211e+02, -1.290926648731689e+02, -4.812591894646246e+04, 9.160381272322787e+02, 1.969132772977637e+02, 4.904353834067461e+04
214, 1.171021000000000e-01, 0.000000000000000e+00, -6.356310971119954e-04, 1.893907324839956e-02, 2.427432034682198e-02, 2.508441396838599e+00, 1.631807179834240e+02, -1.330237463207185e+02, -4.654168955460751e+04, 4.290788023849569e+02, -9.768554137952924e+02, 4.701138230305603e+04
215, 1.288884000000000e-01, 0.000000000000000e+00, -6.660542177392096e-04, 1.977457808498744e-02, 3.297248970428723e-02, 2.693695159494169e+00, 1.789794035629627e+02, -1.366704625453235e+02, -4.474697510490545e+04, -4.189756914701957e+01, -2.132765998201660e+03, 4.490811419655153e+04
216, 1.402968000000000e-01, 0.000000000000000e+00, -6.953226752843503e-04, 2.058119297174044e-02, 4.228724314025445e-02, 2.878823931601603e+00, 1.949645794867896e+02, -1.400621487358947e+02, -4.275247926309088e+04, -5.572990253148995e+02, -3.262687857982950e+03, 4.269676525842348e+04
217, 1.512935000000000e-01, 0.000000000000000e+00, -7.233244140740210e-04, 2.135618126302736e-02, 5.212642628724917e-02, 3.062568138530310e+00, 2.110070688284108e+02, -1.432536748274375e+02, -4.057411625505075e+04, -1.079243476388759e+03, -4.350193123122424e+03, 4.044183102477610e+04
218, 1.618466000000000e-01, 0.000000000000000e+00, -7.499583943996183e-04, 2.209700726350083e-02, 6.238679115190715e-02, 3.243676106403834e+00, 2.269770654604150e+02, -1.463200344240191e+02, -3.824576043525287e+04, -1.617064405686436e+03, -5.385122534487498e+03, 3.817930789933411e+04
219, 1.719248000000000e-01, 0.000000000000000e+00, -7.751318635136990e-04, 2.280125493559543e-02, 7.295507211578234e-02, 3.420890913228954e+00, 2.427442943160948e+02, -1.493544411886750e+02, -3.580113881380265e+04, -2.174743131748799e+03, -6.357362108552688e+03, 3.594994712768150e+04
220, 1.814989000000000e-01, 0.000000000000000e+00, -7.987648980305155e-04, 2.346674251241277e-02, 8.371191760339092e-02, 3.592985412408228e+00, 2.581823992957803e+02, -1.524673779445635e+02, -3.327523209434603e+04, -2.738815393661424e+03, -7.259496792560740e+03, 3.381233383903938e+04
221, 1.905404000000000e-01, -4.336809000000000e-19, -8.207873979713767e-04, 2.409143267949616e-02, 9.453269187239632e-02, 3.758748356496374e+00, 2.731684791957255e+02, -1.557827250830456e+02, -3.070955619481251e+04, -3.315215157538181e+03, -8.095709403682462e+03, 3.182156444711641e+04
222, 1.990233000000000e-01, 0.000000000000000e+00, -8.411439205253458e-04, 2.467356601298530e-02, 1.052916859793946e-01, 3.917026550345427e+00, 2.875873850667260e+02, -1.594332744018477e+02, -2.814734428310877e+04, -3.902531841659760e+03, -8.855529336265434e+03, 3.002486518908739e+04
223, 2.069223000000000e-01, 0.000000000000000e+00, -8.597897385798833e-04, 2.521154588081935e-02, 1.158619658375508e-01, 4.066700794236834e+00, 3.013297419251256e+02, -1.635523333610745e+02, -2.563206657462950e+04, -4.501103554693109e+03, -9.526474690020192e+03, 2.845228423568661e+04
224, 2.142143000000000e-01, 0.000000000000000e+00, -8.766947762565984e-04, 2.570405131938062e-02, 1.261187226995184e-01, 4.206722307984184e+00, 3.142948531729783e+02, -1.682624253558428e+02, -2.321350881887665e+04, -5.126490408343978e+03, -1.007814922936363e+04, 2.708166543143606e+04
225, 2.208774000000000e-01, 0.000000000000000e+00, -8.918416489762555e-04, 2.614997985538674e-02, 1.359386559201641e-01, 4.336103773169824e+00, 3.263885960205061e+02, -1.736570784681545e+02, -2.093351895387204e+04, -5.757177954895336e+03, -1.047390991939671e+04, 2.586759521323481e+04
226, 2.268939000000000e-01, 0.000000000000000e+00, -9.052330616903818e-04, 2.654866213046669e-02, 1.452043405124948e-01, 4.453990024960636e+00, 3.375278261588339e+02, -1.797799877242005e+02, -1.884199695052619e+04, -6.363627865572044e+03, -1.060555074774603e+04, 2.460935841651312e+04
227, 2.322460000000000e-01, 0.000000000000000e+00, -9.168822103231504e-04, 2.689958599713519e-02, 1.537972671855505e-01, 4.559587490301307e+00, 3.476309764362117e+02, -1.865943757066328e+02, -1.699806721011093e+04, -6.950866855056182e+03, -1.028952358722936e+04, 2.290072962993121e+04
228, 2.369133000000000e-01, 0.000000000000000e+00, -9.268075242493458e-04, 2.720224545365004e-02, 1.615917041168817e-01, 4.652124887455845e+00, 3.566107060182950e+02, -1.939462710427716e+02, -1.544549509057777e+04, -7.488599515982360e+03, -9.322999273469017e+03, 2.027277605552410e+04
229, 2.408804000000000e-01, 0.000000000000000e+00, -9.350488194687599e-04, 2.745664059863046e-02, 1.684646375199821e-01, 4.731013595454312e+00, 3.643855086117922e+02, -2.015411779825241e+02, -1.417470686197976e+04, -7.898469240869677e+03, -7.746460718100949e+03, 1.671591377415431e+04
230, 2.441551000000000e-01, 0.000000000000000e+00, -9.417011863979239e-04, 2.766439410205118e-02, 1.743287911560316e-01, 4.796218513424508e+00, 3.709151668905346e+02, -2.089752885633792e+02, -1.326419495930673e+04, -8.294839342982244e+03, -5.585988243531297e+03, 1.222732815740933e+04
231, 2.467325000000000e-01, -5.421011000000000e-20, -9.468338581744253e-04, 2.782635183052618e-02, 1.790757036317157e-01, 4.847542047857743e+00, 3.761329553092955e+02, -2.157046795970563e+02, -1.265755489830867e+04, -8.408878076619425e+03, -2.153390099391205e+03, 6.049761186673706e+03
232, 2.485345000000000e-01, 0.000000000000000e+00, -9.503660345247399e-04, 2.793873466133654e-02, 1.824663149827317e-01, 4.883402671577016e+00, 3.798247245349703e+02, -2.209199494564027e+02, -1.317077538089347e+04, -9.362058737874289e+03, 6.309257404917471e+02, 4.012305026648837e+03
233, 2.495362000000000e-01, 0.000000000000000e+00, -9.523141082019616e-04, 2.800094473219028e-02, 1.843729878271259e-01, 4.903324812501002e+00, 3.818894312236889e+02, -2.239822452292111e+02, -1.372641781596420e+04, -8.381170596766706e+02, -4.661122830615881e+03, 1.590636855328318e+04
234, 2.502041000000000e-01, 2.710505000000000e-20, -9.536184438705404e-04, 2.804238643176872e-02, 1.856460436767948e-01, 4.916605974007028e+00, 3.832638399565964e+02, -2.260478263746691e+02, -1.879949059767388e+04, -3.464697511909984e+03, -4.234975499360613e+03, 1.751844596144107e+04
235, -1.990233000000000e-01, -2.947129000000000e-03, 0.000000000000000e+00, 0.000000000000000e+00, 0.000000000000000e+00, 0.000000000000000e+00, 0.000000000000000e+00, 0.000000000000000e+00, 2.647440728067711e+06, 9.287636925867768e+05, 1.643225124389269e+06, 3.708720263107753e+06
236, -1.905404000000000e-01, -3.108244000000000e-03, 2.827132227486504e-05, 5.441898419334654e-05, 8.512951169051437e-04, 2.171531851081667e-03, -8.640845052189539e-01, 6.306391642593097e-01, 2.273766215275703e+06, -1.860602397563828e+04, 6.251802671235158e+05, 2.611201246340988e+06
237, -1.814989000000000e-01, -3.252287000000000e-03, 5.946068181011780e-05, 2.143322819406706e-04, 1.854114844139264e-03, 1.059437295897739e-02, -1.829077100233930e+00, 6.399290370634847e-01, 2.091775146228766e+06, -7.422384407341594e+04, 6.592827507955917e+05, 2.535777318294427e+06
238, -1.719248000000000e-01, -3.378620000000000e-03, 8.634764069253222e-05, 4.646537926005165e-04, 2.775386624003546e-03, 2.485258193068484e-02, -2.660075901456676e+00, -4.221707514072504e-01, 1.758721286907825e+06, 1.140527251868136e+04, 5.581634155355201e+05, 2.073475065659067e+06
239, -1.618466000000000e-01, -3.486796000000000e-03, 1.076692529908547e-04, 8.011302506643451e-04, 3.610745116433268e-03, 4.517867901689185e-02, -3.228813278436057e+00, -2.882222459483800e+00, 1.460147563122577e+06, 2.389806234070793e+04, 4.929399411627918e+05, 1.742059634705561e+06
240, -1.512935000000000e-01, -3.576470000000000e-03, 1.235682810567782e-04, 1.219781725529602e-03, 4.372670823686840e-03, 7.187909381172719e-02, -3.436447828513132e+00, -6.905979822491759e+00, 1.228266199933304e+06, 3.110469142559313e+04, 4.374121844398738e+05, 1.482738464409117e+06
241, -1.402968000000000e-01, -3.647516000000000e-03, 1.337665880229742e-04, 1.715838023320180e-03, 5.054920821954835e-03, 1.052697458577553e-01, -3.190567710951359e+00, -1.254340796667947e+01, 1.032704596215703e+06, 3.838398408781533e+04, 3.895568576008418e+05, 1.263206895531269e+06
242, -1.288884000000000e-01, -3.699915000000000e-03, 1.381127396360748e-04, 2.284225615750912e-03, 5.664045437687761e-03, 1.456930760245364e-01, -2.402958640746895e+00, -1.973009831102208e+01, 8.649502856254546e+05, 4.219610559285650e+04, 3.474291805010769e+05, 1.076918094664451e+06
243, -1.171021000000000e-01, -3.733874000000000e-03, 1.366010122456409e-04, 2.919511023717017e-03, 6.218090775806677e-03, 1.935187909437466e-01, -9.896884925402465e-01, -2.826530602882764e+01, 7.201204462796603e+05, 4.436761227269213e+04, 3.099456587618448e+05, 9.170098899192446e+05
244, -1.049722000000000e-01, -3.749705000000000e-03, 1.293194345399791e-04, 3.615966789984298e-03, 6.742421958149356e-03, 2.491516316345755e-01, 1.123540525831244e+00, -3.779778205709859e+01, 5.935712155908037e+05, 4.516037598737880e+04, 2.759421599731546e+05, 7.780300454334226e+05
245, -9.253454000000000e-02, -3.747926000000000e-03, 1.164571675891935e-04, 4.367539688527292e-03, 7.265636100806511e-03, 3.130113406158236e-01, 3.987846262171479e+00, -4.785982263283512e+01, 4.821223922287527e+05, 4.491929765692056e+04, 2.445963225279008e+05, 6.560914493269044e+05
246, -7.982535000000000e-02, -3.729145000000000e-03, 9.828855640032060e-05, 5.167943797675282e-03, 7.819319648502736e-03, 3.854972323182285e-01, 7.629337899829741e+00, -5.797135788556449e+01, 3.834433151996566e+05, 4.385296038461840e+04, 2.152109462573642e+05, 5.482559754707321e+05
247, -6.688208000000000e-02, -3.694141000000000e-03, 7.517201276190718e-05, 6.010652988324025e-03, 8.453338025192748e-03, 4.669695448210115e-01, 1.208119977130385e+01, -6.770186323662695e+01, 2.959105500808154e+05, 4.211588152527363e+04, 1.872650268100182e+05, 4.524207055958476e+05
248, -5.374259000000000e-02, -3.643765000000000e-03, 4.753540537382214e-05, 6.889005910591000e-03, 9.234463815341362e-03, 5.578182911017362e-01, 1.738979317647122e+01, -7.656194508389886e+01, 2.184928581178875e+05, 3.983527331328255e+04, 1.603340740064954e+05, 3.670784572244685e+05
249, -4.044550000000000e-02, -3.578988000000000e-03, 1.587102009173088e-05, 7.796256171327487e-03, 1.021930275872204e-02, 6.584469205517689e-01, 2.356272040502613e+01, -8.401430660724273e+01, 1.506899438676983e+05, 3.715728442560168e+04, 1.340518854250982e+05, 2.911516730229962e+05
250, -2.702974000000000e-02, -3.500831000000000e-03, -1.927915336978076e-05, 8.725693246474913e-03, 1.144038862268806e-02, 7.691087271219232e-01, 3.056071309026804e+01, -8.975903297180525e+01, 9.253839761364204e+04, 3.423137952510203e+04, 1.080283625387528e+05, 2.237860961042803e+05
251, -1.353473000000000e-02, -3.410385000000000e-03, -5.733178224992140e-05, 9.670749518885672e-03, 1.292658330514507e-02, 8.896950377847056e-01, 3.834445693110050e+01, -9.395262162669206e+01, 4.464010025282839e+04, 3.117006162590115e+04, 8.186693822670264e+04, 1.642870178652893e+05
252, -9.637083000000000e-13, -3.308766000000000e-03, -9.767776482262250e-05, 1.062519228307536e-02, 1.473312352129805e-02, 1.019681942212174e+00, 4.690206049510130e+01, -9.721717548669099e+01, 8.103659283200458e+03, 2.775883223387775e+04, 5.550931262003830e+04, 1.127451150778499e+05
253, 1.353473000000000e-02, -3.197115000000000e-03, -1.396971050110341e-04, 1.158336678142270e-02, 1.696170047949092e-02, 1.158296555626251e+00, 5.627627561957291e+01, -1.004558953476443e+02, -1.601268302954774e+04, 2.268580022668220e+04, 3.045799875583974e+04, 7.216876997133628e+04
254, 2.702974000000000e-02, -3.076578000000000e-03, -1.827871688250566e-04, 1.254054900399567e-02, 1.975063678722339e-02, 1.304866769582810e+00, 6.657381417665931e+01, -1.043631094473138e+02, -2.990053589348486e+04, 1.270120645027906e+04, 1.201852039200202e+04, 4.891510789496760e+04
255, 4.044550000000000e-02, -2.948292000000000e-03, -2.264718662032111e-04, 1.349320639224315e-02, 2.319701699767918e-02, 1.459064229752699e+00, 7.788267877868080e+01, -1.089884380401352e+02, -3.758776951684052e+04, 3.331806954439061e+03, 4.387811750166959e+03, 4.185000963450917e+04
256, 5.374259000000000e-02, -2.813383000000000e-03, -2.704815494711915e-04, 1.443846533972417e-02, 2.728650111875169e-02, 1.620612537223681e+00, 9.017436582011246e+01, -1.139050534727208e+02, -4.237335775527735e+04, 1.654267229931286e+03, 3.396284099647482e+03, 4.454852123898435e+04
257, 6.688208000000000e-02, -2.672945000000000e-03, -3.146338710949708e-04, 1.537331253356607e-02, 3.196268122234758e-02, 1.788806071919276e+00, 1.033372545423802e+02, -1.187612356363125e+02, -4.704197365514689e+04, 2.495190652490321e+03, 2.957483737820408e+03, 4.988905178373042e+04
258, 7.982535000000000e-02, -2.528055000000000e-03, -3.587163290987738e-04, 1.629451106767565e-02, 3.720804767826691e-02, 1.962615815480001e+00, 1.172589157321553e+02, -1.234274207506365e+02, -5.166484240623972e+04, 2.599543549572945e+03, 1.573105800017371e+03, 5.435551702075505e+04
259, 9.253454000000000e-02, -2.379750000000000e-03, -4.024984824886957e-04, 1.719882245250545e-02, 4.302217181973822e-02, 2.140954237661410e+00, 1.318384277444524e+02, -1.278628196261644e+02, -5.585164446479821e+04, 1.992870778054126e+03, -1.523019897627883e+02, 5.784531724577987e+04
260, 1.049722000000000e-01, -2.229046000000000e-03, -4.457527374746610e-04, 1.808308064522396e-02, 4.938982439147910e-02, 2.322733771859019e+00, 1.469688265912741e+02, -1.320268161429281e+02, -5.946672943924737e+04, 1.339578145031029e+03, -1.761581606482876e+03, 6.090828942811536e+04
261, 1.171021000000000e-01, -2.076921000000000e-03, -4.882625821788944e-04, 1.894424941848606e-02, 5.627715183452375e-02, 2.506833201874813e+00, 1.625321502431937e+02, -1.358851575206685e+02, -6.252832403106503e+04, 8.118865613146538e+02, -3.249360765503431e+03, 6.367272304075411e+04
262, 1.288884000000000e-01, -1.924338000000000e-03, -5.298167486820454e-04, 1.977935267702840e-02, 6.363702131773563e-02, 2.692060614152007e+00, 1.784018200969434e+02, -1.394343480063002e+02, -6.506059193695849e+04, 2.945600736264059e+02, -4.688249722798889e+03, 6.602434881299439e+04
263, 1.402968000000000e-01, -1.772228000000000e-03, -5.702132977950447e-04, 2.058556544988483e-02, 7.141294463225156e-02, 2.877186246058383e+00, 1.944482123459674e+02, -1.427057450833487e+02, -6.705616417249764e+04, -2.578233970183074e+02, -6.069579036345592e+03, 6.789239640100242e+04
264, 1.512935000000000e-01, -1.621512000000000e-03, -6.092572558223520e-04, 2.136015448165818e-02, 7.953883988256383e-02, 3.060949980858304e+00, 2.105392764328996e+02, -1.457569325582489e+02, -6.850435120038639e+04, -8.182448305801498e+02, -7.374141874870565e+03, 6.927424390830695e+04
265, 1.618466000000000e-01, -1.473089000000000e-03, -6.467665850608686e-04, 2.210058747838155e-02, 8.794015066754746e-02, 3.242098989964923e+00, 2.265436991444124e+02, -1.486660324526705e+02, -6.941345476633505e+04, -1.392077742907001e+03, -8.590133216955830e+03, 7.015746066459031e+04
266, 1.719248000000000e-01, -1.327852000000000e-03, -6.825688544903611e-04, 2.280445170959097e-02, 9.653414968138652e-02, 3.419374731180621e+00, 2.423306546662949e+02, -1.515296125330796e+02, -6.979812535410811e+04, -1.981639768111816e+03, -9.706931102465867e+03, 7.054058238310571e+04
267, 1.814989000000000e-01, -1.186682000000000e-03, -7.165067461010353e-04, 2.346956855368744e-02, 1.052334247892095e-01, 3.591547938438365e+00, 2.577740836667715e+02, -1.544616673985354e+02, -6.967812401559050e+04, -2.576329484604277e+03, -1.071642012355442e+04, 7.044158906737398e+04
268, 1.905404000000000e-01, -1.050452000000000e-03, -7.484351627793852e-04, 2.409390372234501e-02, 1.139463663952041e-01, 3.757404767337500e+00, 2.727523087655307e+02, -1.575896989656012e+02, -6.907545268882831e+04, -3.180674162633764e+03, -1.162108161275566e+04, 6.987360008198764e+04
269, 1.990233000000000e-01, -9.200083000000000e-04, -7.782277862663871e-04, 2.467570058611384e-02, 1.225806937545049e-01, 3.915789091056035e+00, 2.871524076433948e+02, -1.610500921454091e+02, -6.800608770828092e+04, -3.790744162570302e+03, -1.240936027074539e+04, 6.884460208331699e+04
270, 2.069223000000000e-01, -7.961963000000000e-04, -8.057716461797346e-04, 2.521336513113759e-02, 1.310433131792839e-01, 4.065578550188545e+00, 3.008683001979378e+02, -1.649796604648008e+02, -6.647596948748438e+04, -4.405684794380216e+03, -1.306636497152710e+04, 6.734715893161049e+04
271, 2.142143000000000e-01, -6.798753000000000e-04, -8.309705309771229e-04, 2.570557884920496e-02, 1.392437260921644e-01, 4.205721047351122e+00, 3.138036748755444e+02, -1.695043061046528e+02, -6.447508039495380e+04, -5.043604149510357e+03, -1.355696532118221e+04, 6.532431096913045e+04
272, 2.208774000000000e-01, -5.718598000000000e-04, -8.537472826239002e-04, 2.615124135043809e-02, 1.470920482229141e-01, 4.335225958302677e+00, 3.258698150170183e+02, -1.747206447608760e+02, -6.194326333361311e+04, -5.679117325714844e+03, -1.383643786793925e+04, 6.270121352487101e+04
273, 2.268939000000000e-01, -4.727680000000000e-04, -8.740617484475028e-04, 2.654968467128525e-02, 1.545000859835881e-01, 4.453235154654151e+00, 3.369897215864207e+02, -1.806748542890633e+02, -5.881400085976628e+04, -6.278308692796805e+03, -1.379375151114477e+04, 5.933859852126112e+04
274, 2.322460000000000e-01, -3.832931000000000e-04, -8.918836373452163e-04, 2.690039795623930e-02, 1.613790731957596e-01, 4.558952067948941e+00, 3.470878272670375e+02, -1.873325637759839e+02, -5.506033091145112e+04, -6.851518009340669e+03, -1.324140889282356e+04, 5.500390240063408e+04
275, 2.369133000000000e-01, -3.046217000000000e-04, -9.071612557849899e-04, 2.720287714785120e-02, 1.676413662440164e-01, 4.651601619933949e+00, 3.560808974431412e+02, -1.945430213433931e+02, -5.060475523474115e+04, -7.355846036666366e+03, -1.196815092813914e+04, 4.943090827992328e+04
276, 2.408804000000000e-01, -2.375136000000000e-04, -9.198991139099678e-04, 2.745712293488955e-02, 1.731916839605698e-01, 4.730592002729958e+00, 3.638891422909496e+02, -2.020141131353920e+02, -4.523519603978484e+04, -7.729384649397674e+03, -1.000642298772970e+04, 4.251117373219371e+04
277, 2.441551000000000e-01, -1.805256000000000e-04, -9.303040953752300e-04, 2.766475374972030e-02, 1.779239782557120e-01, 4.795888699720475e+00, 3.704742254676180e+02, -2.093400935814889e+02, -3.916294507055458e+04, -8.140195558016228e+03, -7.397176129889183e+03, 3.436981009700385e+04
278, 2.467325000000000e-01, -1.335980000000000e-04, -9.384722689157179e-04, 2.782661375800460e-02, 1.817353924778700e-01, 4.847292215367276e+00, 3.757642618164934e+02, -2.159779676917603e+02, -3.296501431645009e+04, -8.197944337601832e+03, -3.585805833137496e+03, 2.578448698789678e+04
279, 2.485345000000000e-01, -1.044067000000000e-04, -9.438695466602010e-04, 2.793893731051463e-02, 1.845434393449481e-01, 4.883204475339821e+00, 3.795132737565478e+02, -2.211351812424624e+02, -2.681500425696042e+04, -8.894583896835858e+03, -9.975448366921137e+01, 1.792153089754375e+04
280, 2.495362000000000e-01, -9.519618000000000e-05, -9.464034269539964e-04, 2.800112759234920e-02, 1.862662310828915e-01, 4.903142832170746e+00, 3.815974094935636e+02, -2.241797351305609e+02, -1.879061776443960e+04, -2.843311766687962e+02, -4.496820448013252e+03, 2.057591358446536e+04
281, 2.502041000000000e-01, -4.696250000000000e-05, -9.507031391793863e-04, 2.804247671561054e-02, 1.865801532403606e-01, 4.916516146642453e+00, 3.831192552046606e+02, -2.261452915392092e+02, -1.859965686120922e+04, -2.631184692887119e+03, -9.424002396254515e+03, 2.470302386447701e+04
282, -1.990233000000000e-01, -5.894257000000000e-03, 0.000000000000000e+00, 0.000000000000000e+00, 0.000000000000000e+00, 0.000000000000000e+00, 0.000000000000000e+00, 0.000000000000000e+00, 5.512940072195679e+06, 1.917356670382534e+06, 1.819695591056366e+06, 5.115993371363386e+06
283, -1.905404000000000e-01, -6.216489000000000e-03, 5.892932848523257e-05, 6.015831568943416e-05, 2.617898889379318e-03, 2.416660447349821e-03, -1.005645707152841e+00, 4.577567065146579e-01, 4.652369634001900e+06, -1.350833209965621e+05, 4.630303726185647e+05, 4.876196704419607e+06
284, -1.814989000000000e-01, -6.504574000000000e-03, 1.235031668065320e-04, 2.208342235573651e-04, 5.674133331124934e-03, 1.084822075440674e-02, -2.187612436227560e+00, 3.705260734682528e-01, 4.262568732846037e+06, -1.102132133519727e+05, 4.317211883916419e+05, 4.457213780717772e+06
285, -1.719248000000000e-01, -6.757240000000000e-03, 1.804112233201626e-04, 4.706745637907379e-04, 8.631851295949188e-03, 2.509185896353162e-02, -3.330749402961132e+00, -7.926228100882882e-01, 3.573277523698057e+06, 8.280009871657792e+03, 4.264252211442632e+05, 3.665591514408028e+06
286, -1.618466000000000e-01, -6.973592000000000e-03, 2.291079358545176e-04, 8.072920557235576e-04, 1.151001167110191e-02, 4.543314925485178e-02, -4.294120639332726e+00, -3.371497802742776e+00, 2.996008262450687e+06, 5.364148638557075e+03, 3.990153584325718e+05, 3.095287586079755e+06
287, -1.512935000000000e-01, -7.152941000000000e-03, 2.697981059122383e-04, 1.226264846130272e-03, 1.432951025551935e-02, 7.215167237937456e-02, -4.929373543128507e+00, -7.527331039987276e+00, 2.537809525545793e+06, 1.838636371561650e+04, 3.729871822244604e+05, 2.627540831420387e+06
288, -1.402968000000000e-01, -7.295031000000000e-03, 3.020067473665918e-04, 1.722697574632298e-03, 1.708160553039889e-02, 1.055590633798877e-01, -5.098822995142059e+00, -1.330448102401319e+01, 2.145649192524181e+06, 2.580147333917507e+04, 3.449427305798862e+05, 2.229281566346769e+06
289, -1.288884000000000e-01, -7.399830000000000e-03, 3.255672918624066e-04, 2.291499162298976e-03, 1.977284766718234e-02, 1.459970847165792e-01, -4.673818079204431e+00, -2.063326120568140e+01, 1.810125926265491e+06, 3.107471490749114e+04, 3.165425411428720e+05, 1.888337876029370e+06
290, -1.171021000000000e-01, -7.467748000000000e-03, 3.404334994490192e-04, 2.927190116646693e-03, 2.241662192242389e-02, 1.938327244718322e-01, -3.535312010850142e+00, -2.930879008479619e+01, 1.519138843011656e+06, 3.428577055286094e+04, 2.881521274952780e+05, 1.592769676102148e+06
291, -1.049722000000000e-01, -7.499411000000000e-03, 3.466903264714235e-04, 3.624014412247174e-03, 2.503075746916930e-02, 2.494668781706584e-01, -1.583686961151261e+00, -3.898036774958673e+01, 1.264408589712705e+06, 3.599628236757264e+04, 2.599718196979722e+05, 1.333918357691088e+06
292, -9.253454000000000e-02, -7.495851000000000e-03, 3.445515855352487e-04, 4.375895975543148e-03, 2.763345140953413e-02, 3.133133204924313e-01, 1.246568981946595e+00, -4.918724387571169e+01, 1.039618909600219e+06, 3.649419708322087e+04, 2.320983055109888e+05, 1.105322433747998e+06
293, -7.982535000000000e-02, -7.458289000000000e-03, 3.343456597123733e-04, 5.176533161358150e-03, 3.024506968972411e-02, 3.857679408151123e-01, 4.988276009725356e+00, -5.945279334222369e+01, 8.402217446379350e+05, 3.601522950652219e+04, 2.045559580120466e+05, 9.022863618678475e+05
294, -6.688208000000000e-02, -7.388282000000000e-03, 3.165191661121513e-04, 6.019390074393193e-03, 3.290049546512181e-02, 4.671953042720129e-01, 9.668139401144799e+00, -6.933420257608735e+01, 6.630032256556638e+05, 3.474487376765258e+04, 1.773813521201703e+05, 7.215019979438446e+05
295, -5.374259000000000e-02, -7.287529000000000e-03, 2.916194441523504e-04, 6.897801086917354e-03, 3.564213034398537e-02, 5.579841033276070e-01, 1.530615900352637e+01, -7.833996229439926e+01, 5.059023656589530e+05, 3.283977418555373e+04, 1.506119876242073e+05, 5.608244812024398e+05
296, -4.044550000000000e-02, -7.157976000000000e-03, 2.602952424113054e-04, 7.805020679698660e-03, 3.848894998585635e-02, 6.585273851259452e-01, 2.186603058387970e+01, -8.595025071236512e+01, 3.678936565851545e+05, 3.046361549128917e+04, 1.242901007553132e+05, 4.191075628232821e+05
297, -2.702974000000000e-02, -7.001662000000000e-03, 2.232796052579925e-04, 8.734344173700967e-03, 4.141902236166778e-02, 7.690681603406246e-01, 2.924403185954989e+01, -9.187276681660720e+01, 2.490195355821504e+05, 2.777526983357556e+04, 9.842995099217714e+04, 2.961466632192832e+05
298, -1.353473000000000e-02, -6.820770000000000e-03, 1.813877643193390e-04, 9.679215078681736e-03, 4.439777901543152e-02, 8.894990525266693e-01, 3.732345756192181e+01, -9.625818096902142e+01, 1.504833531401336e+05, 2.490375868645944e+04, 7.305696691540969e+04, 1.926642577196568e+05
299, -9.637083000000000e-13, -6.617531000000000e-03, 1.355034548113274e-04, 1.063341814360657e-02, 4.743185899285521e-02, 1.019308908834251e+00, 4.603997361923773e+01, -9.971702776833473e+01, 7.449375238779924e+04, 2.173615119421588e+04, 4.849121353272280e+04, 1.104036033977409e+05
300, 1.353473000000000e-02, -6.394229000000000e-03, 8.656181323343663e-05, 1.159132352746566e-02, 5.061155269395082e-02, 1.157746435696259e+00, 5.544056795928523e+01, -1.031256364348191e+02, 2.287354063274611e+04, 1.746923101544095e+04, 2.625344013455562e+04, 5.278426885005116e+04
301, 2.702974000000000e-02, -6.153156000000000e-03, 3.548419640753906e-05, 1.254823361970686e-02, 5.409340306083299e-02, 1.304156888637915e+00, 6.568721097580381e+01, -1.071554012640451e+02, -7.046231168486953e+03, 1.038184474717945e+04, 1.035695605916585e+04, 2.707035251651150e+04
302, 4.044550000000000e-02, -5.896584000000000e-03, -1.698135509218926e-05, 1.350060264253140e-02, 5.799330502170352e-02, 1.458203406018191e+00, 7.693987319072684e+01, -1.118634176829077e+02, -2.282332496691361e+04, 4.006343288901673e+03, 3.489234575498474e+03, 2.772237598779221e+04
303, 5.374259000000000e-02, -5.626765000000000e-03, -7.037139664418839e-05, 1.444553245964064e-02, 6.229588323104934e-02, 1.619594569500025e+00, 8.921881679651456e+01, -1.168439019974099e+02, -3.282045039027910e+04, 2.608376903546655e+03, 2.022370776712925e+03, 3.565896433787362e+04
304, 6.688208000000000e-02, -5.345890000000000e-03, -1.243941822517804e-04, 1.538002312261309e-02, 6.692161372947847e-02, 1.787640146909337e+00, 1.024168704352263e+02, -1.217423976956384e+02, -4.249369530926922e+04, 2.954106105991447e+03, 1.022146797640193e+03, 4.549375550319708e+04
305, 7.982535000000000e-02, -5.056110000000000e-03, -1.787663914521086e-04, 1.630084936874450e-02, 7.183279874657966e-02, 1.961323352164293e+00, 1.164002055125412e+02, -1.264213231480908e+02, -5.249458960593882e+04, 2.849698743963538e+03, -7.619112494210486e+02, 5.536526246632554e+04
306, 9.253454000000000e-02, -4.759500000000000e-03, -2.331799860638558e-04, 1.720477639697646e-02, 7.703323424875308e-02, 2.139557393581490e+00, 1.310514710545444e+02, -1.308389352982327e+02, -6.200005114461967e+04, 2.253719490599513e+03, -2.801889835370609e+03, 6.449766962799174e+04
307, 1.049722000000000e-01, -4.458091000000000e-03, -2.873195068545422e-04, 1.808864022708374e-02, 8.252595785622474e-02, 2.321253908429210e+00, 1.462573038632578e+02, -1.349568959492916e+02, -7.060095465163769e+04, 1.609836060511056e+03, -4.713546523169181e+03, 7.282354274943007e+04
308, 1.171021000000000e-01, -4.153842000000000e-03, -3.408806903934523e-04, 1.894940776402416e-02, 8.829621210044758e-02, 2.505292657980360e+00, 1.618956226339632e+02, -1.387429500942221e+02, -7.831009052286344e+04, 1.043767296314215e+03, -6.491832718511303e+03, 8.040901889071149e+04
309, 1.288884000000000e-01, -3.848675000000000e-03, -3.935668534807084e-04, 1.978410664401599e-02, 9.431607999296143e-02, 2.690483074237672e+00, 1.778349412019932e+02, -1.421952430784856e+02, -8.517381530288367e+04, 4.833128994709496e+02, -8.190275047718706e+03, 8.720932308706307e+04
310, 1.402968000000000e-01, -3.544456000000000e-03, -4.450923863853221e-04, 2.058991543282171e-02, 1.005514391906017e-01, 2.875595878047214e+00, 1.939412345572599e+02, -1.453471674582936e+02, -9.116611040041974e+04, -1.030171562637298e+02, -9.797062383193035e+03, 9.314728485873624e+04
311, 1.512935000000000e-01, -3.243024000000000e-03, -4.951795904166714e-04, 2.136410421677457e-02, 1.069623239577628e-01, 3.059370503646075e+00, 2.100796167374213e+02, -1.482589257599520e+02, -9.624755188277012e+04, -6.982056043264464e+02, -1.129213933570742e+04, 9.818211251213768e+04
312, 1.618466000000000e-01, -2.946179000000000e-03, -5.435652603304113e-04, 2.210414401370962e-02, 1.135029693325744e-01, 3.240552990251444e+00, 2.261173098144901e+02, -1.510116889532291e+02, -1.004008559118308e+05, -1.304368167737818e+03, -1.266217050858327e+04, 1.022811621520254e+05
313, 1.719248000000000e-01, -2.655704000000000e-03, -5.899974717120947e-04, 2.280762528899669e-02, 1.201211640114677e-01, 3.417883134439321e+00, 2.419229538470734e+02, -1.537053306375566e+02, -1.036216403279168e+05, -1.922185275698837e+03, -1.389627023976651e+04, 1.054286700296678e+05
314, 1.814989000000000e-01, -2.373364000000000e-03, -6.342412783340854e-04, 2.347237246954877e-02, 1.267615012245082e-01, 3.590129485221190e+00, 2.573707855513671e+02, -1.564573323306074e+02, -1.059143809304654e+05, -2.543412963797557e+03, -1.498617956625687e+04, 1.076285247057407e+05
315, 1.905404000000000e-01, -2.100903000000000e-03, -6.760767122042772e-04, 2.409635417440458e-02, 1.333653778645048e-01, 3.756075540492106e+00, 2.723403463468833e+02, -1.593987797710693e+02, -1.072823518776776e+05, -3.170964768586791e+03, -1.593016625036373e+04, 1.088772782211048e+05
316, 1.990233000000000e-01, -1.840017000000000e-03, -7.153063264668517e-04, 2.467781646388712e-02, 1.398740082125454e-01, 3.914562163835871e+00, 2.867209291566411e+02, -1.626696227680224e+02, -1.077141261011062e+05, -3.798463215072013e+03, -1.671500884622886e+04, 1.091605747326475e+05
317, 2.069223000000000e-01, -1.592393000000000e-03, -7.517491549576197e-04, 2.521516782618655e-02, 1.462280664288051e-01, 4.064463760475046e+00, 3.004097344465310e+02, -1.664101426152913e+02, -1.071788129275690e+05, -4.423181292526686e+03, -1.732144196232886e+04, 1.084382277581749e+05
318, 2.142143000000000e-01, -1.359751000000000e-03, -7.852427468320024e-04, 2.570709211464683e-02, 1.523713735375172e-01, 4.204724834292604e+00, 3.133148206857459e+02, -1.707495951560124e+02, -1.056077006016737e+05, -5.065007931324449e+03, -1.770634470190189e+04, 1.065968649642876e+05
319, 2.208774000000000e-01, -1.143720000000000e-03, -8.156501696563747e-04, 2.615249092869695e-02, 1.582474496035402e-01, 4.334351370964490e+00, 3.253528681132124e+02, -1.757876661698225e+02, -1.028392768812099e+05, -5.693980317459802e+03, -1.780931050757673e+04, 1.034692940319981e+05
320, 2.268939000000000e-01, -9.455361000000000e-04, -8.428884040947043e-04, 2.655069760870271e-02, 1.637973141810598e-01, 4.452482197649630e+00, 3.364530200544783e+02, -1.815730129479645e+02, -9.868900032128199e+04, -6.273456280945576e+03, -1.751992930462210e+04, 9.883534019583877e+04
321, 2.322460000000000e-01, -7.665862000000001e-04, -8.668836291995836e-04, 2.690120249803088e-02, 1.689619396936186e-01, 4.558317666246732e+00, 3.465457024011145e+02, -1.880736946554791e+02, -9.304493769707724e+04, -6.817793936641858e+03, -1.664720323305118e+04, 9.243180092918688e+04
322, 2.369133000000000e-01, -6.092434000000000e-04, -8.875140399355971e-04, 2.720350338626283e-02, 1.736917572195389e-01, 4.651078813534345e+00, 3.555517870942456e+02, -1.951422275910028e+02, -8.570983006816654e+04, -7.270268345930812e+03, -1.496471939752932e+04, 8.395556056488212e+04
323, 2.408804000000000e-01, -4.750271000000000e-04, -9.047488502130423e-04, 2.745760150299823e-02, 1.779192054405823e-01, 4.730170557338012e+00, 3.633932082889708e+02, -2.024889350133993e+02, -7.626836417593693e+04, -7.584816459769443e+03, -1.248830881597176e+04, 7.308393226429026e+04
324, 2.441551000000000e-01, -3.610512000000000e-04, -9.189067160300769e-04, 2.766511101334177e-02, 1.815194517783771e-01, 4.795558888456978e+00, 3.700335129653522e+02, -2.097061999590175e+02, -6.505022504196779e+04, -7.993018530680878e+03, -9.305796754646020e+03, 6.001596644082942e+04
325, 2.467325000000000e-01, -2.671960000000000e-04, -9.301104971932424e-04, 2.782687428926801e-02, 1.843952473565329e-01, 4.847042342824190e+00, 3.753957013543309e+02, -2.162520716054089e+02, -5.333129771608634e+04, -8.025811697236613e+03, -5.038380385995210e+03, 4.641258634314741e+04
326, 2.485345000000000e-01, -2.088133000000000e-04, -9.373732248459713e-04, 2.793913915939207e-02, 1.866206102150232e-01, 4.883006226680095e+00, 3.792017398888188e+02, -2.213508931732341e+02, -4.045444911298080e+04, -8.105314148828129e+03, -5.969370339037905e+02, 3.237115796845625e+04
327, 2.495362000000000e-01, -1.903924000000000e-04, -9.404928656842574e-04, 2.800131017500228e-02, 1.881595342447182e-01, 4.902960820507641e+00, 3.813052912245642e+02, -2.243774177724943e+02, -2.446510106344322e+04, -6.984187151470442e+02, -3.158218990044291e+03, 2.459171768301513e+04
328, 2.502041000000000e-01, -1.235855000000000e-04, -9.459459840708215e-04, 2.804262386499112e-02, 1.881043236369186e-01, 4.916369604035532e+00, 3.828837847842032e+02, -2.263044084743196e+02, -1.636321365359832e+04, 1.252415039421802e+03, -1.240773041680322e+04, 3.043217821048321e+04
329, -1.990233000000000e-01, -8.841386000000000e-03, 0.000000000000000e+00, 0.000000000000000e+00, 0.000000000000000e+00, 0.000000000000000e+00, 0.000000000000000e+00, 0.000000000000000e+00, 8.780903725402653e+06, 3.039427640882670e+06, 2.135710195896814e+06, 7.156086905044219e+06
330, -1.905404000000000e-01, -9.324733000000000e-03, 9.402402534736877e-05, 7.052521363788575e-05, 4.543122948164452e-03, 2.922170303981004e-03, -1.117856749022573e+00, 2.677927519763880e-01, 7.042838468834484e+06, -5.060010470599860e+05, -4.446860780110362e+04, 7.549363407933739e+06
331, -1.814989000000000e-01, -9.756861000000000e-03, 1.915716002625487e-04, 2.308010113268156e-04, 9.629966488567199e-03, 1.133035178098338e-02, -2.505831592617318e+00, 8.542853127420780e-02, 6.399613126528948e+06, 3.440316666287374e+04, 1.091944123025336e+05, 6.368955292031076e+06
332, -1.719248000000000e-01, -1.013586000000000e-02, 2.769435733904309e-04, 4.796520763114297e-04, 1.456034059543798e-02, 2.555118525329466e-02, -3.978923399690840e+00, -1.191904115605679e+00, 5.304894239852555e+06, -9.911209246250597e+03, 1.679982468470108e+05, 5.325415533603461e+06
333, -1.618466000000000e-01, -1.046039000000000e-02, 3.527680245502999e-04, 8.161915209280497e-04, 1.946876228914933e-02, 4.590796560403314e-02, -5.354641907800326e+00, -3.898769006731745e+00, 4.510344995262541e+06, 7.617797701266492e+03, 2.111025965607763e+05, 4.522478241048465e+06
334, -1.512935000000000e-01, -1.072941000000000e-02, 4.178002759922231e-04, 1.235116284130842e-03, 2.432397406039144e-02, 7.264118194531384e-02, -6.430904048009984e+00, -8.187356559005439e+00, 3.824470857314751e+06, 1.309564187000040e+04, 2.310888532137816e+05, 3.839295412601792e+06
335, -1.402968000000000e-01, -1.094255000000000e-02, 4.717124959900530e-04, 1.731636398160109e-03, 2.913030760098045e-02, 1.060663145320732e-01, -7.027234393871625e+00, -1.410002510672001e+01, 3.244750633039098e+06, 1.865702478232033e+04, 2.371722720507931e+05, 3.260779464446219e+06
336, -1.288884000000000e-01, -1.109975000000000e-02, 5.142323446894024e-04, 2.300572723552425e-03, 3.389042631182441e-02, 1.465205473838590e-01, -6.974177727414158e+00, -2.156294947446420e+01, 2.745830541971137e+06, 2.268048361654349e+04, 2.334430872156655e+05, 2.762884170607185e+06
337, -1.171021000000000e-01, -1.120162000000000e-02, 5.452748113467306e-04, 2.936414893788770e-03, 3.861388298758812e-02, 1.943680921385689e-01, -6.116093325158499e+00, -3.036915742893531e+01, 2.312118482666834e+06, 2.539990704920563e+04, 2.228570037461488e+05, 2.329751664995555e+06
338, -1.049722000000000e-01, -1.124912000000000e-02, 5.649079889654177e-04, 3.633373349470310e-03, 4.331130704474655e-02, 2.500054896741835e-01, -4.325842883448825e+00, -4.016954703857081e+01, 1.931492906966267e+06, 2.696243341882181e+04, 2.074353826835885e+05, 1.949193186071407e+06
339, -9.253454000000000e-02, -1.124378000000000e-02, 5.733614813683894e-04, 4.385349074291845e-03, 4.798973249379138e-02, 3.138413088351943e-01, -1.524152316411231e+00, -5.050899061011283e+01, 1.594943544160255e+06, 2.752755503870188e+04, 1.886223835016655e+05, 1.612174462390871e+06
340, -7.982535000000000e-02, -1.118743000000000e-02, 5.710099432296379e-04, 5.186023876266152e-03, 5.265621039003213e-02, 3.862681514660795e-01, 2.323975560125634e+00, -6.091389729680874e+01, 1.295872138185653e+06, 2.723829579923901e+04, 1.674949695795022e+05, 1.312116643208930e+06
341, -6.688208000000000e-02, -1.108242000000000e-02, 5.583832107954791e-04, 6.028851866996353e-03, 5.733155242838994e-02, 4.676515719043344e-01, 7.238622607812320e+00, -7.093578408807545e+01, 1.029612411151624e+06, 2.624153193013284e+04, 1.449037977808298e+05, 1.044385735116551e+06
342, -5.374259000000000e-02, -1.093129000000000e-02, 5.361425915626888e-04, 6.907163140830283e-03, 6.203857550171449e-02, 5.583773084371024e-01, 1.322075238327870e+01, -8.008397009729158e+01, 7.931545069205846e+05, 2.468192008713685e+04, 1.215665670833481e+05, 8.060172688250615e+05
343, -4.044550000000000e-02, -1.073696000000000e-02, 5.050887768093209e-04, 7.814213452642684e-03, 6.676129108575019e-02, 6.588289625745904e-01, 2.019248810447254e+01, -8.785186147044668e+01, 5.849890752836971e+05, 2.272221984622794e+04, 9.811964609958077e+04, 5.955282331899705e+05
344, -2.702974000000000e-02, -1.050249000000000e-02, 4.661418091073133e-04, 8.743304799645928e-03, 7.141880634494914e-02, 7.692404909660415e-01, 2.797774033589051e+01, -9.395472726694638e+01, 4.051766681389115e+05, 2.053615565381882e+04, 7.516834838325603e+04, 4.129763264879247e+05
345, -1.353473000000000e-02, -1.023115000000000e-02, 4.203444185725715e-04, 9.687893092039318e-03, 7.590358874494375e-02, 8.895056553560599e-01, 3.637136912057601e+01, -9.853849321616275e+01, 2.555410604955758e+05, 1.828813160858455e+04, 5.336896193108922e+04, 2.601575227739223e+05
346, -9.637083000000000e-13, -9.926297000000001e-03, 3.688529990476235e-04, 1.064178178007564e-02, 8.016580903715503e-02, 1.019126560004371e+00, 4.524670572795424e+01, -1.021986542239337e+02, 1.395280047794008e+05, 1.596845177408476e+04, 3.362666370962789e+04, 1.406768395573171e+05
347, 1.353473000000000e-02, -9.591344000000000e-03, 3.129198989591340e-04, 1.159936442307265e-02, 8.428499450837948e-02, 1.157373144020511e+00, 5.465373677423953e+01, -1.057843222112309e+02, 6.014814982702968e+04, 1.305915805930119e+04, 1.742128738542038e+04, 5.857796652635554e+04
348, 2.702974000000000e-02, -9.229734000000000e-03, 2.538016471794403e-04, 1.255596241282870e-02, 8.844879700750405e-02, 1.303606659387172e+00, 6.482446303063578e+01, -1.099450251748792e+02, 1.456759682449920e+04, 8.620470694825510e+03, 6.732712492140235e+03, 1.472025744372470e+04
349, 4.044550000000000e-02, -8.844876000000000e-03, 1.925330609121354e-04, 1.350801805940502e-02, 9.280375289156206e-02, 1.457485933024930e+00, 7.600854748570328e+01, -1.147411221206174e+02, -8.480025100722036e+03, 4.557224606326789e+03, 1.811666252629779e+03, 1.353138641705332e+04
350, 5.374259000000000e-02, -8.440148000000000e-03, 1.297617602308027e-04, 1.445260973263459e-02, 9.732751562801639e-02, 1.618709074810552e+00, 8.827541120729026e+01, -1.197836200715544e+02, -2.303667470715331e+04, 3.273369718702515e+03, -1.744649935919238e+02, 2.631235811983532e+04
351, 6.688208000000000e-02, -8.018835000000000e-03, 6.587071317512122e-05, 1.538673845341481e-02, 1.019061154483419e-01, 1.786594986736524e+00, 1.015116035972258e+02, -1.247208348448154e+02, -3.758145073585182e+04, 3.191089285680555e+03, -1.976261172448077e+03, 4.096367235361550e+04
352, 7.982535000000000e-02, -7.584165000000000e-03, 1.208454321814443e-06, 1.630718592300121e-02, 1.064813559156006e-01, 1.960137424261502e+00, 1.155569503631078e+02, -1.294110217700509e+02, -5.303307467026222e+04, 2.929231274153788e+03, -4.187504204490999e+03, 5.658551451093237e+04
353, 9.253454000000000e-02, -7.139249000000000e-03, -6.383829398007063e-05, 1.721072219808690e-02, 1.110654060839109e-01, 2.138252923617756e+00, 1.302787844813632e+02, -1.338108360688335e+02, -6.790320446281132e+04, 2.349018631279429e+03, -6.479487309686889e+03, 7.143745427188369e+04
354, 1.049722000000000e-01, -6.687137000000000e-03, -1.288645471098780e-04, 1.809418651264378e-02, 1.156812969419988e-01, 2.319853588725247e+00, 1.455588672526270e+02, -1.378830801910782e+02, -8.149189194986923e+04, 1.707123215281124e+03, -8.650689946084380e+03, 8.497890250305696e+04
355, 1.171021000000000e-01, -6.230763000000000e-03, -1.934786016623401e-04, 1.895454892812112e-02, 1.203328489774658e-01, 2.503820008236826e+00, 1.612712165031311e+02, -1.415972561503107e+02, -9.384529109203827e+04, 1.103501327381395e+03, -1.069715474872749e+04, 9.732928470290398e+04
356, 1.288884000000000e-01, -5.773013000000000e-03, -2.572982209189243e-04, 1.978884057395979e-02, 1.250109475930359e-01, 2.688962719377080e+00, 1.772791754582070e+02, -1.449532590364547e+02, -1.050451169508776e+05, 5.041727186470275e+02, -1.263196266751018e+04, 1.085307259400521e+05
357, 1.402968000000000e-01, -5.316684000000000e-03, -3.199544173808244e-04, 2.059424344522740e-02, 1.297037902820629e-01, 2.874052966411430e+00, 1.934442567522406e+02, -1.479864996432380e+02, -1.150410810792996e+05, -1.130752819274798e+02, -1.443823767647029e+04, 1.185001997693244e+05
358, 1.512935000000000e-01, -4.864536000000000e-03, -3.810865103559652e-04, 2.136803093616687e-02, 1.343977719312981e-01, 3.057829822008440e+00, 2.096288394305104e+02, -1.507597075623423e+02, -1.237623510520558e+05, -7.395161522423430e+02, -1.609719065300220e+04, 1.271656246572287e+05
359, 1.618466000000000e-01, -4.419268000000000e-03, -4.403502375068061e-04, 2.210767727822658e-02, 1.390759689616894e-01, 3.239038210824122e+00, 2.256987587521934e+02, -1.533570212721545e+02, -1.311665597927014e+05, -1.374256235604812e+03, -1.759431110193378e+04, 1.344778093042269e+05
360, 1.719248000000000e-01, -3.983556000000000e-03, -4.974139420567404e-04, 2.281077603652960e-02, 1.437167558490233e-01, 3.416416216001449e+00, 2.415221346687085e+02, -1.558815866199199e+02, -1.372302981186245e+05, -2.016781263453575e+03, -1.891828953353551e+04, 1.404076274845577e+05
361, 1.814989000000000e-01, -3.560046000000000e-03, -5.519652306400920e-04, 2.347515457413952e-02, 1.482966843189659e-01, 3.588730142257754e+00, 2.569734977043992e+02, -1.584543386337160e+02, -1.419429297516546e+05, -2.660400503440763e+03, -2.006201920965056e+04, 1.449467537161598e+05
362, 1.905404000000000e-01, -3.151355000000000e-03, -6.037091237700525e-04, 2.409878430771896e-02, 1.527902172283551e-01, 3.754760761737977e+00, 2.719336016054322e+02, -1.612099173917670e+02, -1.452900872896241e+05, -3.305863808918463e+03, -2.101628929889255e+04, 1.480751747626790e+05
363, 1.990233000000000e-01, -2.760025000000000e-03, -6.523772778727109e-04, 2.467991386739166e-02, 1.571719937689500e-01, 3.913345857555314e+00, 2.862939447402607e+02, -1.642917979387057e+02, -1.472326985050248e+05, -3.944855458420243e+03, -2.176618114961085e+04, 1.497547078802502e+05
364, 2.069223000000000e-01, -2.388589000000000e-03, -6.977204152513356e-04, 2.521695414563169e-02, 1.614165336330262e-01, 4.063356510729592e+00, 2.999549868055283e+02, -1.678437062807790e+02, -1.477040321826960e+05, -4.571767084977936e+03, -2.228579669517262e+04, 1.499115480853883e+05
365, 2.142143000000000e-01, -2.039626000000000e-03, -7.395099580409111e-04, 2.570859125571087e-02, 1.655019195425786e-01, 4.203733747726165e+00, 3.128291427156216e+02, -1.719982207699575e+02, -1.465783547653540e+05, -5.206918470067037e+03, -2.252164112172517e+04, 1.483737856747461e+05
366, 2.208774000000000e-01, -1.715579000000000e-03, -7.775492409253148e-04, 2.615372869205568e-02, 1.694050522927066e-01, 4.333480080609537e+00, 3.248384863319775e+02, -1.768580774886376e+02, -1.435937254871059e+05, -5.815185914973105e+03, -2.238840008480050e+04, 1.448719703740449e+05
367, 2.268939000000000e-01, -1.418304000000000e-03, -8.117121943003248e-04, 2.655170101647819e-02, 1.730961919966922e-01, 4.451731209125330e+00, 3.359183110900511e+02, -1.824744120376099e+02, -1.384444458682871e+05, -6.360259347394072e+03, -2.178093235526950e+04, 1.390822360545924e+05
368, 2.322460000000000e-01, -1.149879000000000e-03, -8.418816237888331e-04, 2.690199966992021e-02, 1.765459869621104e-01, 4.557684326600645e+00, 3.460050418917112e+02, -1.888177305083200e+02, -1.309357988043564e+05, -6.858060275126758e+03, -2.050505276834922e+04, 1.306794320260806e+05
369, 2.369133000000000e-01, -9.138651000000000e-04, -8.678655206931753e-04, 2.720412419458953e-02, 1.797429631055967e-01, 4.650556495024329e+00, 3.550236688266704e+02, -1.957438670792020e+02, -1.207531760656252e+05, -7.235153173011714e+03, -1.831296210283466e+04, 1.192803414036334e+05
370, 2.408804000000000e-01, -7.125407000000000e-04, -8.895978464940667e-04, 2.745807631224709e-02, 1.826472593613833e-01, 4.729749272281883e+00, 3.628978673113114e+02, -2.029656340729464e+02, -1.072753780825468e+05, -7.462972968308350e+03, -1.519231323025138e+04, 1.043347580618901e+05
371, 2.441551000000000e-01, -5.415768000000000e-04, -9.075089895632468e-04, 2.766546589362091e-02, 1.851152402124829e-01, 4.795229083464396e+00, 3.695930978542561e+02, -2.100736059563080e+02, -9.093431066600195e+04, -7.850762565109660e+03, -1.131768740901178e+04, 8.611176550382473e+04
372, 2.467325000000000e-01, -4.007940000000000e-04, -9.217485614755527e-04, 2.782713342836724e-02, 1.870552729262940e-01, 4.846792431269125e+00, 3.750272771803978e+02, -2.165269879210958e+02, -7.376380692421376e+04, -7.890603314124490e+03, -6.488556168815070e+03, 6.713929101859620e+04
373, 2.485345000000000e-01, -3.132200000000000e-04, -9.308770323815395e-04, 2.793934014682519e-02, 1.886978584870136e-01, 4.882807909887864e+00, 3.788901327047492e+02, -2.215671281069040e+02, -5.440289453382124e+04, -7.058693822789533e+03, -1.010105835939510e+03, 4.738728306376777e+04
374, 2.495362000000000e-01, -2.855885000000000e-04, -9.345833332429831e-04, 2.800149259270728e-02, 1.900527637260061e-01, 4.902778775946249e+00, 3.810125517975769e+02, -2.245752185468252e+02, -3.002642479267257e+04, -1.092540409590958e+03, -2.971637873981317e+02, 2.893998774636398e+04
375, 2.501265000000000e-01, -1.963230000000000e-04, -9.412771872743743e-04, 2.803794813489674e-02, 1.894035016447204e-01, 4.914687364923289e+00, 3.825014074815383e+02, -2.262157645161635e+02, -1.137867536048663e+04, 7.731837784351751e+03, -1.310109076293188e+04, 3.243094246816390e+04
376, -1.990233000000000e-01, -1.178851000000000e-02, 0.000000000000000e+00, 0.000000000000000e+00, 0.000000000000000e+00, 0.000000000000000e+00, 0.000000000000000e+00, 0.000000000000000e+00, 1.306263504174317e+07, 4.507541529328755e+06, 2.643410691326530e+06, 1.005684370656285e+07
377, -1.905404000000000e-01, -1.243298000000000e-02, 1.401352460766093e-04, 8.694300139333071e-05, 6.873556628263460e-03, 3.748131768024734e-03, -1.155247767350314e+00, 5.977366592661899e-02, 9.794855729597656e+06, -2.329584650353419e+05, -3.328759067520835e+05, 1.004988970085081e+07
378, -1.814989000000000e-01, -1.300915000000000e-02, 2.633404334401521e-04, 2.428583813386704e-04, 1.370538706190035e-02, 1.198437566445064e-02, -2.750351717957186e+00, -2.174853930666504e-01, 8.369062259257822e+06, 4.878409681934047e+05, -1.014087112355983e+05, 7.883830537599407e+06
379, -1.719248000000000e-01, -1.351448000000000e-02, 3.776653327857455e-04, 4.916489303330001e-04, 2.062579432541726e-02, 2.623285418385524e-02, -4.598032007540376e+00, -1.629945609873418e+00, 7.124976092671839e+06, 3.065026113771135e+05, 6.143922611227317e+03, 6.818484553495712e+06
380, -1.618466000000000e-01, -1.394718000000000e-02, 4.796725995547042e-04, 8.275811404885372e-04, 2.751595909512129e-02, 4.659232181079648e-02, -6.412813716064495e+00, -4.469441433493022e+00, 6.061853431892324e+06, 2.945980362801875e+05, 9.181059864659206e+04, 5.770177773891605e+06
381, -1.512935000000000e-01, -1.430588000000000e-02, 5.684959532715283e-04, 1.246234896369073e-03, 3.437850304285005e-02, 7.334332253549961e-02, -7.951997647642184e+00, -8.891220390011503e+00, 5.153708361524930e+06, 2.521030052497385e+05, 1.432132255753038e+05, 4.909966922555016e+06
382, -1.402968000000000e-01, -1.459006000000000e-02, 6.436397848139819e-04, 1.742568301067805e-03, 4.121403988812890e-02, 1.067877952865111e-01, -8.993431272061226e+00, -1.493444144577991e+01, 4.383139609712090e+06, 2.227149954393237e+05, 1.714054627628242e+05, 4.174524200637295e+06
383, -1.288884000000000e-01, -1.479966000000000e-02, 7.047449158856796e-04, 2.311392530630975e-03, 4.802222975105829e-02, 1.472613091259871e-01, -9.327854422033328e+00, -2.252277235226590e+01, 3.717618664089202e+06, 1.954339853265845e+05, 1.836198621693127e+05, 3.541278007505544e+06
384, -1.171021000000000e-01, -1.493550000000000e-02, 7.516624761142127e-04, 2.947149827437287e-03, 5.480908302207933e-02, 1.951240232252929e-01, -8.760126653205720e+00, -3.144838628160205e+01, 3.137372539678751e+06, 1.711832625690325e+05, 1.842688206559713e+05, 2.988996289844543e+06
385, -1.049722000000000e-01, -1.499882000000000e-02, 7.844260901073364e-04, 3.644022037181374e-03, 6.157893562699777e-02, 2.507679323187799e-01, -7.131221414581887e+00, -4.136504679011499e+01, 2.626773461327490e+06, 1.488919963787334e+05, 1.766841771658017e+05, 2.502951407474708e+06
386, -9.253454000000000e-02, -1.499170000000000e-02, 8.032717129384623e-04, 4.395886898629315e-03, 6.832667156336499e-02, 3.145964414922370e-01, -4.349227173002019e+00, -5.182354749186190e+01, 2.174246831160961e+06, 1.282566968624011e+05, 1.632108027472415e+05, 2.071865510640262e+06
387, -7.982535000000000e-02, -1.491658000000000e-02, 8.086099899223933e-04, 5.196410290073539e-03, 7.504190633998989e-02, 3.869989200416317e-01, -3.858942739351185e-01, -6.235362614778491e+01, 1.771249800962538e+06, 1.090027417266687e+05, 1.456562958284466e+05, 1.687580609036543e+06
388, -6.688208000000000e-02, -1.477656000000000e-02, 8.010429327765288e-04, 6.039036613376426e-03, 8.173211540769110e-02, 4.683402803760964e-01, 4.771238552595163e+00, -7.250462054817309e+01, 1.411756917942386e+06, 9.102211066385833e+04, 1.254327997347818e+05, 1.344348905661873e+06
389, -5.374259000000000e-02, -1.457506000000000e-02, 7.813409941438845e-04, 6.917092314515571e-03, 8.840966691584937e-02, 5.590024131845039e-01, 1.111806320827960e+01, -8.178838223570236e+01, 1.091872659766449e+06, 7.430369631952127e+04, 1.037331108718207e+05, 1.038503167320657e+06
390, -4.044550000000000e-02, -1.431595000000000e-02, 7.504489405973350e-04, 7.823835059332127e-03, 9.502916085552229e-02, 6.593588636130390e-01, 1.854072552620302e+01, -8.971061981039722e+01, 8.096652382778476e+05, 5.895093686853192e+04, 8.161019279283113e+04, 7.682531201441420e+05
391, -2.702974000000000e-02, -1.400332000000000e-02, 7.094682012983060e-04, 8.752574468949751e-03, 1.014434810409085e-01, 7.696334130593196e-01, 2.677722548568551e+01, -9.599640245301640e+01, 5.652651239285655e+05, 4.518200323990967e+04, 6.008847399224610e+04, 5.337873652046463e+05
392, -1.353473000000000e-02, -1.364154000000000e-02, 6.596636069124563e-04, 9.696780223810039e-03, 1.074558361374858e-01, 8.897200586972438e-01, 3.551535497806881e+01, -1.007882007339720e+02, 3.612347383324396e+05, 3.334976824139139e+04, 4.028170813892433e+04, 3.376374055906209e+05
393, -9.637083000000000e-13, -1.323506000000000e-02, 6.024567856718501e-04, 1.065027601816402e-02, 1.129457396076777e-01, 1.019135880064070e+00, 4.454935641657495e+01, -1.046623739256323e+02, 2.026290643475688e+05, 2.384477791049270e+04, 2.353652961536907e+04, 1.848775107528091e+05
394, 1.353473000000000e-02, -1.278846000000000e-02, 5.394231221431817e-04, 1.160747988748535e-02, 1.179832403146121e-01, 1.157174795642109e+00, 5.392931852778067e+01, -1.084368288846142e+02, 9.454373913213496e+04, 1.668625402699750e+04, 1.134443472477970e+04, 8.109607132158654e+04
395, 2.702974000000000e-02, -1.230631000000000e-02, 4.721795512209373e-04, 1.256372895808467e-02, 1.228093239553679e-01, 1.303215391652958e+00, 6.398269732443800e+01, -1.127365220787162e+02, 3.431093125672326e+04, 1.113622034534736e+04, 4.301355464832852e+03, 2.471990819491923e+04
396, 4.044550000000000e-02, -1.179317000000000e-02, 4.020759841653093e-04, 1.351545208523656e-02, 1.276228320923393e-01, 1.456913854915554e+00, 7.508004112665756e+01, -1.176227442692349e+02, 5.650482517454159e+03, 7.268765410345892e+03, 8.550911886064569e+02, 2.354477284824733e+03
397, 5.374259000000000e-02, -1.125353000000000e-02, 3.299255587830516e-04, 1.445969891825800e-02, 1.323826603969439e-01, 1.617958111039078e+00, 8.733908586742211e+01, -1.227237288042703e+02, -1.275465625893738e+04, 5.355898623951023e+03, -1.465862432704711e+03, 1.834631322234995e+04
398, 6.688208000000000e-02, -1.069178000000000e-02, 2.561709610647949e-04, 1.539345995889210e-02, 1.369197622151759e-01, 1.785671349644966e+00, 1.006199489674312e+02, -1.276963207754971e+02, -3.255221514233572e+04, 4.070958712289913e+03, -3.894232425772233e+03, 3.744218273458264e+04
399, 7.982535000000000e-02, -1.011222000000000e-02, 1.812177076930973e-04, 1.631352166164157e-02, 1.411561204586246e-01, 1.959058245751082e+00, 1.147284877583572e+02, -1.323967014126630e+02, -5.403974039259592e+04, 2.586372051547527e+03, -6.470240908474359e+03, 5.808590775903874e+04
400, 9.253454000000000e-02, -9.518999000000000e-03, 1.055349871294214e-04, 1.721666066078777e-02, 1.451201223250042e-01, 2.137041092126612e+00, 1.295197078846229e+02, -1.367787487917881e+02, -7.470114813740444e+04, 9.234911058489913e+02, -8.983596866545038e+03, 7.772969903013017e+04
401, 1.049722000000000e-01, -8.916182000000000e-03, 2.961942486387050e-05, 1.809972029336240e-02, 1.488571045251987e-01, 2.318533144994679e+00, 1.448731481312320e+02, -1.408054977463356e+02, -9.360653114496665e+04, -7.155121994154442e+02, -1.137369851046361e+04, 9.563569141262294e+04
402, 1.171021000000000e-01, -8.307683999999999e-03, -4.604952010975540e-05, 1.895967366151523e-02, 1.523884149174637e-01, 2.502415531492435e+00, 1.606590074101670e+02, -1.444481556931373e+02, -1.109189357398193e+05, -2.268121965759734e+03, -1.364448558110827e+04, 1.120253867695071e+05
403, 1.288884000000000e-01, -7.697351000000000e-03, -1.210047765291190e-04, 1.979355514346489e-02, 1.557228638981601e-01, 2.687499747918906e+00, 1.767349298838393e+02, -1.477084607652645e+02, -1.267602743345783e+05, -3.757199285960499e+03, -1.578019684162250e+04, 1.269874596992054e+05
404, 1.402968000000000e-01, -7.088912000000000e-03, -1.947938897515944e-04, 2.059855010004675e-02, 1.588710577317161e-01, 2.872557659363538e+00, 1.929578827386544e+02, -1.506237896757398e+02, -1.410400912832376e+05, -5.192528711099500e+03, -1.775877383594048e+04, 1.404138755587043e+05
405, 1.512935000000000e-01, -6.486048000000000e-03, -2.669731292607383e-04, 2.137193518895216e-02, 1.618460733841773e-01, 3.056328060733582e+00, 2.091876845051563e+02, -1.532592961108073e+02, -1.536516445460954e+05, -6.562148407635511e+03, -1.956215541758445e+04, 1.522039144456966e+05
406, 1.618466000000000e-01, -5.892357000000000e-03, -3.371171426180392e-04, 2.211118776164426e-02, 1.646599187778017e-01, 3.237554762171556e+00, 2.252888963096009e+02, -1.557020156912848e+02, -1.645275193510965e+05, -7.859222143356921e+03, -2.117508582108246e+04, 1.622913811269516e+05
407, 1.719248000000000e-01, -5.311408000000000e-03, -4.048145107790260e-04, 2.281390438147978e-02, 1.673215626319151e-01, 3.414974077687124e+00, 2.411291297738700e+02, -1.580583362669900e+02, -1.736238797775051e+05, -9.078980613726060e+03, -2.258569883124418e+04, 1.706325848353733e+05
408, 1.814989000000000e-01, -4.746728000000000e-03, -4.696753537176594e-04, 2.347791524084251e-02, 1.698395065351324e-01, 3.587350007216073e+00, 2.565832028210522e+02, -1.604526178012021e+02, -1.809152539981605e+05, -1.021268689137405e+04, -2.378767085947609e+04, 1.772082942655958e+05
409, 1.905404000000000e-01, -4.201807000000000e-03, -5.313296949498547e-04, 2.410119443837689e-02, 1.722213157850887e-01, 3.753460528426770e+00, 2.715330757755153e+02, -1.630230238994525e+02, -1.863687016704946e+05, -1.125623074756317e+04, -2.476657937717494e+04, 1.819832720030006e+05
410, 1.990233000000000e-01, -3.680033000000000e-03, -5.894382645162011e-04, 2.468199306512301e-02, 1.744750436396292e-01, 3.912140266205756e+00, 2.858724403219068e+02, -1.659165223918909e+02, -1.899149540606051e+05, -1.219474418027224e+04, -2.550598085237830e+04, 1.848964392217360e+05
411, 2.069223000000000e-01, -3.184785000000000e-03, -6.436834643074225e-04, 2.521872430860113e-02, 1.766090537311118e-01, 4.062256890818197e+00, 2.995049912902705e+02, -1.692802549037847e+02, -1.914500943810581e+05, -1.301386866253661e+04, -2.597471861816317e+04, 1.858446412405861e+05
412, 2.142143000000000e-01, -2.719501000000000e-03, -6.937705824517122e-04, 2.571007644350202e-02, 1.786356502341120e-01, 4.202747869566537e+00, 3.123474864315147e+02, -1.732500927679629e+02, -1.907884717110395e+05, -1.372240555340482e+04, -2.611207733472933e+04, 1.846070261812356e+05
413, 2.208774000000000e-01, -2.287439000000000e-03, -7.394431784466771e-04, 2.615495476955768e-02, 1.805651203446836e-01, 4.332612155170982e+00, 3.243273929849044e+02, -1.779318037519048e+02, -1.875561287651662e+05, -1.426060574059890e+04, -2.581542884713382e+04, 1.808233496167021e+05
414, 2.268939000000000e-01, -1.891072000000000e-03, -7.805322478975503e-04, 2.655269498251739e-02, 1.823968965079181e-01, 4.450982246424939e+00, 3.353861808256622e+02, -1.833789887914794e+02, -1.813153534957066e+05, -1.456847575482713e+04, -2.498124502951548e+04, 1.740711683456814e+05
415, 2.322460000000000e-01, -1.533172000000000e-03, -8.168770075266727e-04, 2.690278952858493e-02, 1.841313502118620e-01, 4.557052091242485e+00, 3.454662834763634e+02, -1.895646273108113e+02, -1.717868059437853e+05, -1.464661559833260e+04, -2.341311327456293e+04, 1.639687010213692e+05
416, 2.369133000000000e-01, -1.218487000000000e-03, -8.482153289955779e-04, 2.720473960148278e-02, 1.857950734156826e-01, 4.650034692176778e+00, 3.544968358367587e+02, -1.963479138880542e+02, -1.585341326300148e+05, -1.438978651114771e+04, -2.084832041250299e+04, 1.500539981944010e+05
417, 2.408804000000000e-01, -9.500542000000000e-04, -8.744459437681318e-04, 2.745854737003849e-02, 1.873758955619564e-01, 4.729328161979892e+00, 3.624032823404250e+02, -2.034441995991671e+02, -1.407017873766515e+05, -1.373265955580365e+04, -1.725308193470358e+04, 1.315744457125668e+05
418, 2.441551000000000e-01, -7.221023000000000e-04, -8.961108698880795e-04, 2.766581839070641e-02, 1.887113690343998e-01, 4.794899288762140e+00, 3.691530455472584e+02, -2.104423095135306e+02, -1.188116045281324e+05, -1.304520046818563e+04, -1.286406686158678e+04, 1.088506733679192e+05
419, 2.467325000000000e-01, -5.343920000000000e-04, -9.133864561843652e-04, 2.782739117357178e-02, 1.897154784715920e-01, 4.846542481480853e+00, 3.746590054999206e+02, -2.168027172279052e+02, -9.580719133562260e+04, -1.198702283195173e+04, -7.603714418762280e+03, 8.518853526051584e+04
420, 2.485345000000000e-01, -4.176267000000000e-04, -9.243810349409031e-04, 2.793954022680372e-02, 1.907751918982246e-01, 4.882609513218876e+00, 3.785784193082458e+02, -2.217839177364137e+02, -7.001936192521281e+04, -9.493518933890929e+03, -1.401540642373286e+03, 6.059071657027210e+04
421, 2.495362000000000e-01, -3.807847000000000e-04, -9.286751349801168e-04, 2.800167474817306e-02, 1.919459128942675e-01, 4.902596670421191e+00, 3.807189845074889e+02, -2.247732003705794e+02, -3.514411746829590e+04, -1.889280805448951e+03, 9.991987812959701e+02, 3.331482784423180e+04
422, 2.500000000000000e-01, -3.150000000000000e-04, -9.336624772972376e-04, 2.803032564342628e-02, 1.915228627386452e-01, 4.911944729464061e+00, 3.818763703777531e+02, -2.260716833927544e+02, -8.083258610802524e+03, 1.191959633619606e+04, -1.197727077718298e+04, 3.120791994206778e+04
