"PointID","x","y","Displacement_x","Displacement_y","Velocity_x","Velocity_y","Acceleration_x","Acceleration_y","Sxx","Syy","Sxy","Von_Mises_Stress"
0, -1.990233000000000e-01, 1.178851000000000e-02, 0.000000000000000e+00, 0.000000000000000e+00, 0.000000000000000e+00, 0.000000000000000e+00, 0.000000000000000e+00, 0.000000000000000e+00, -1.246006273882720e+07, -4.359443730405112e+06, 2.305299859039260e+06, 9.320818530577399e+06
1, -1.905404000000000e-01, 1.243298000000000e-02, -1.318099682537548e-04, 7.713716568135540e-05, 1.126671170398830e-02, -6.401545118706848e-03, 4.528403600255485e+00, -3.361005821381281e+00, -9.293593475195006e+06, 2.433550317161349e+05, -5.690733439342269e+05, 9.604622049127210e+06
2, -1.814989000000000e-01, 1.300915000000000e-02, -2.525015330802759e-04, 2.182791630434535e-04, 2.139378140413465e-02, -1.688297756887986e-02, 7.789199670328131e+00, -7.278004292209756e+00, -8.153885693850006e+06, -4.785676538317013e+05, -4.444325342936681e+05, 7.726615567348048e+06
3, -1.719248000000000e-01, 1.351448000000000e-02, -3.704277881851645e-04, 4.480565314520655e-04, 3.134257385944070e-02, -3.374179171488351e-02, 1.054986575153624e+01, -1.259118950382424e+01, -7.108060178644978e+06, -2.979320317758716e+05, -4.051143952193477e+05, 6.858156900336605e+06
4, -1.618466000000000e-01, 1.394718000000000e-02, -4.836435642447996e-04, 7.631916045371545e-04, 4.090053703783214e-02, -5.680589957301797e-02, 1.276348425500661e+01, -1.911699207642507e+01, -6.246044763864230e+06, -2.855776331986904e+05, -3.506298234754705e+05, 6.001577584950981e+06
5, -1.512935000000000e-01, 1.430588000000000e-02, -5.921748144025799e-04, 1.162032989560923e-03, 5.000476328230170e-02, -8.596685035554393e-02, 1.447788855373298e+01, -2.673026221247753e+01, -5.527578622881643e+06, -2.429521821655128e+05, -3.074955126997072e+05, 5.320290460044250e+06
6, -1.402968000000000e-01, 1.459006000000000e-02, -6.961535128440659e-04, 1.642383487200782e-03, 5.859847648660370e-02, -1.210495990410710e-01, 1.576687940917320e+01, -3.538016277797173e+01, -4.939253268486828e+06, -2.150642193926242e+05, -2.725456359300687e+05, 4.755532216927954e+06
7, -1.288884000000000e-01, 1.479966000000000e-02, -7.956601551420243e-04, 2.202053613613248e-03, 6.660668378379331e-02, -1.618644335268779e-01, 1.670685106764186e+01, -4.511706961319310e+01, -4.451951591570367e+06, -1.905391969382190e+05, -2.439954668551256e+05, 4.289262261567588e+06
8, -1.171021000000000e-01, 1.493550000000000e-02, -8.908273860517654e-04, 2.838663333633998e-03, 7.393874895482325e-02, -2.081924185466676e-01, 1.737152582696086e+01, -5.610925140535791e+01, -4.049375609451857e+06, -1.703613781566758e+05, -2.210327545457420e+05, 3.904122605774422e+06
9, -1.049722000000000e-01, 1.499882000000000e-02, -9.818395983318480e-04, 3.549781489732225e-03, 8.048188343408050e-02, -2.598087154271512e-01, 1.781270992046490e+01, -6.869655542378632e+01, -3.718913819511202e+06, -1.527640954751436e+05, -2.029686136989154e+05, 3.589179416918287e+06
10, -9.253454000000000e-02, 1.499170000000000e-02, -1.068975429499428e-03, 4.332863986004794e-03, 8.608611800742173e-02, -3.164854597792035e-01, 1.801338343171262e+01, -8.340848707001791e+01, -3.453249829235486e+06, -1.406836444895821e+05, -1.891473223816740e+05, 3.334096814218007e+06
11, -7.982535000000000e-02, 1.491658000000000e-02, -1.152606103932670e-03, 5.185452065703061e-03, 9.054473899109612e-02, -3.779133933663518e-01, 1.783605243344715e+01, -1.007899674453101e+02, -3.246882804009873e+06, -1.384620756435090e+05, -1.783375229656105e+05, 3.128817110814839e+06
12, -6.688208000000000e-02, 1.477656000000000e-02, -1.233180309574816e-03, 6.105323999598421e-03, 9.364932078713235e-02, -4.434883527796827e-01, 1.712316842990229e+01, -1.209632824730964e+02, -3.089550120102959e+06, -1.524425570491492e+05, -1.691076030086515e+05, 2.956516592635533e+06
13, -5.374259000000000e-02, 1.457506000000000e-02, -1.311001104393593e-03, 7.090865048549748e-03, 9.525097976443292e-02, -5.125777289801574e-01, 1.577643541435354e+01, -1.442579537132904e+02, -2.953280297008108e+06, -1.577958567311976e+05, -1.613851339344762e+05, 2.814056485156349e+06
14, -4.044550000000000e-02, 1.431595000000000e-02, -1.386079376568810e-03, 8.139946711057784e-03, 9.520517951474348e-02, -5.847322364154565e-01, 1.356444865587876e+01, -1.713757840620988e+02, -2.822574451502553e+06, -1.508366269080003e+05, -1.547148210483043e+05, 2.689596569520654e+06
15, -2.702974000000000e-02, 1.400332000000000e-02, -1.458324355020294e-03, 9.249670998109707e-03, 9.327188752032384e-02, -6.595337649149104e-01, 1.002870676872053e+01, -2.026131042071821e+02, -2.696993532574844e+06, -1.429782619284606e+05, -1.488380423701095e+05, 2.571304154339036e+06
16, -1.353473000000000e-02, 1.364154000000000e-02, -1.527688130552652e-03, 1.041672030927552e-02, 8.915134548787514e-02, -7.362081915552865e-01, 4.651582123827090e+00, -2.376013004763313e+02, -2.576240116805651e+06, -1.374150877806318e+05, -1.436276822985488e+05, 2.455683849091470e+06
17, -9.637083000000000e-13, 1.323506000000000e-02, -1.594139054946079e-03, 1.163743471655430e-02, 8.264663697795929e-02, -8.136487978185366e-01, -2.957625021754268e+00, -2.754661754620114e+02, -2.457990526773733e+06, -1.329185925050668e+05, -1.387943453473064e+05, 2.341583861561526e+06
18, 1.353473000000000e-02, 1.278846000000000e-02, -1.657647223786727e-03, 1.290771536966023e-02, 7.379370960419589e-02, -8.906285217871415e-01, -1.286696416947500e+01, -3.148145487344050e+02, -2.339777113058136e+06, -1.280952381813532e+05, -1.341187071538600e+05, 2.227888692482857e+06
19, 2.702974000000000e-02, 1.230631000000000e-02, -1.718170970486230e-03, 1.422297019739527e-02, 6.289246446396526e-02, -9.662318410269658e-01, -2.472529939348632e+01, -3.545105353939912e+02, -2.219951042909123e+06, -1.228275199132036e+05, -1.294292589893015e+05, 2.113039233670993e+06
20, 4.044550000000000e-02, 1.179317000000000e-02, -1.775661631565897e-03, 1.557811300124587e-02, 5.027353111933217e-02, -1.040563331748434e+00, -3.805702552888904e+01, -3.945760685515393e+02, -2.097286136832963e+06, -1.169351652911088e+05, -1.246190134195017e+05, 1.995973337624870e+06
21, 5.374259000000000e-02, 1.125353000000000e-02, -1.830060893161321e-03, 1.696753069960749e-02, 3.595589269635319e-02, -1.114143837840197e+00, -5.268796108970515e+01, -4.356954999302604e+02, -1.971269529124887e+06, -1.103427212463765e+05, -1.195680587411493e+05, 1.876228841843503e+06
22, 6.688208000000000e-02, 1.069178000000000e-02, -1.881312493833751e-03, 1.838511268234402e-02, 1.981384342817649e-02, -1.186618719141463e+00, -6.867096166508304e+01, -4.778436961278536e+02, -1.842390655771693e+06, -1.037366481035725e+05, -1.141688055892988e+05, 1.753583708597672e+06
23, 7.982535000000000e-02, 1.011222000000000e-02, -1.929371277309753e-03, 1.982427394150646e-02, 1.863502676379858e-03, -1.257534907921967e+00, -8.599948963562980e+01, -5.207576419865868e+02, -1.711215703154870e+06, -9.726334915787498e+04, -1.083893253895435e+05, 1.628445634464363e+06
24, 9.253454000000000e-02, 9.518999000000000e-03, -1.974196548649975e-03, 2.127803683998563e-02, -1.778434941019669e-02, -1.326584469513519e+00, -1.045899106026685e+02, -5.642164392222655e+02, -1.578158932357658e+06, -9.068867413526520e+04, -1.022088885342148e+05, 1.501450763987214e+06
25, 1.049722000000000e-01, 8.916182000000000e-03, -2.015753216438503e-03, 2.273901625244770e-02, -3.897965208993648e-02, -1.393545100017516e+00, -1.243185429048893e+02, -6.080331660153234e+02, -1.443755979171768e+06, -8.393559583093283e+04, -9.562050304705254e+04, 1.373202314796003e+06
26, 1.171021000000000e-01, 8.307683999999999e-03, -2.054011712067599e-03, 2.419955235053886e-02, -6.155688409914017e-02, -1.458211845139131e+00, -1.450469481692070e+02, -6.519959322416983e+02, -1.308798416656740e+06, -7.710199098726403e+04, -8.864281690644694e+04, 1.244389923200683e+06
27, 1.288884000000000e-01, 7.697351000000000e-03, -2.088953309829010e-03, 2.565166702915253e-02, -8.532892953722704e-02, -1.520379453651438e+00, -1.666209419473010e+02, -6.958440628388014e+02, -1.174230959832381e+06, -7.026143892254410e+04, -8.133447104100879e+04, 1.115889729236710e+06
28, 1.402968000000000e-01, 7.088912000000000e-03, -2.120575967531339e-03, 2.708726499467486e-02, -1.100832125154807e-01, -1.579866931791261e+00, -1.888674149910418e+02, -7.392864667841297e+02, -1.041110636882542e+06, -6.347262936427945e+04, -7.376706167206810e+04, 9.887074346312970e+05
29, 1.512935000000000e-01, 6.486048000000000e-03, -2.148895853377251e-03, 2.849807534594603e-02, -1.355823564693495e-01, -1.636522410712111e+00, -2.115933725171328e+02, -7.820124635537911e+02, -9.105553143229152e+05, -5.681914758757447e+04, -6.604594284642338e+04, 8.638945008841333e+05
30, 1.618466000000000e-01, 5.892357000000000e-03, -2.173956518280307e-03, 2.987590433604375e-02, -1.615735217805019e-01, -1.690228466622031e+00, -2.345939199534360e+02, -8.237027213228251e+02, -7.836818361863070e+05, -5.031615956362137e+04, -5.828403977228342e+04, 7.425721061398401e+05
31, 1.719248000000000e-01, 5.311408000000000e-03, -2.195825913000023e-03, 3.121254677666108e-02, -1.877910380263184e-01, -1.740890081749709e+00, -2.576547610273342e+02, -8.640251951499758e+02, -6.616717704875194e+05, -4.403855062862205e+04, -5.060848693968958e+04, 6.258719278531097e+05
32, 1.814989000000000e-01, 4.746728000000000e-03, -2.214610822125163e-03, 3.250006430718298e-02, -2.139641141226005e-01, -1.788437476011808e+00, -2.805586520322366e+02, -9.026432827352018e+02, -5.457527562277245e+05, -3.808332632347176e+04, -4.314378239874015e+04, 5.149502829380603e+05
33, 1.905404000000000e-01, 4.201807000000000e-03, -2.230446704432966e-03, 3.373068630479026e-02, -2.398179808387091e-01, -1.832814132785797e+00, -3.030853683332121e+02, -9.392144339705831e+02, -4.371451890156321e+05, -3.251722007387252e+04, -3.602834056121844e+04, 4.109938667964695e+05
34, 1.990233000000000e-01, 3.680033000000000e-03, -2.243506721136179e-03, 3.489713690386519e-02, -2.650829877865577e-01, -1.873979610340103e+00, -3.250186115625813e+02, -9.734022362215893e+02, -3.370475997677502e+05, -2.740649443643411e+04, -2.937789823730577e+04, 3.151663968924434e+05
35, 2.069223000000000e-01, 3.184785000000000e-03, -2.253997777566866e-03, 3.599247311598003e-02, -2.894933917426088e-01, -1.911894449565338e+00, -3.461436414233423e+02, -1.004876353583754e+03, -2.466308080402850e+05, -2.281887984713539e+04, -2.330836948622965e+04, 2.286151778731280e+05
36, 2.142143000000000e-01, 2.719501000000000e-03, -2.262184062517016e-03, 3.701036687268611e-02, -3.127937629095952e-01, -1.946522447445849e+00, -3.662516588370785e+02, -1.033330165220595e+03, -1.669805802825914e+05, -1.880490871849897e+04, -1.789371593532636e+04, 1.524361175160480e+05
37, 2.208774000000000e-01, 2.287439000000000e-03, -2.268342774357801e-03, 3.794504156044152e-02, -3.347388187840399e-01, -1.977822362197082e+00, -3.851390302963707e+02, -1.058493478507600e+03, -9.905472881559908e+04, -1.540594568818654e+04, -1.317928286850311e+04, 8.770343725538341e+04
38, 2.268939000000000e-01, 1.891072000000000e-03, -2.272705171292243e-03, 3.879175951196930e-02, -3.551060613589876e-01, -2.005762872825847e+00, -4.026181716959964e+02, -1.080166768245494e+03, -4.364327279588625e+04, -1.265567128064877e+04, -9.166265815785140e+03, 3.600434923297007e+04
39, 2.322460000000000e-01, 1.533172000000000e-03, -2.275560943217734e-03, 3.954625894839454e-02, -3.736789224039425e-01, -2.030310384537793e+00, -4.185040443823720e+02, -1.098235712983854e+03, -1.271642795013595e+03, -1.054167390725785e+04, -5.797916714089027e+03, 1.484576807430414e+04
40, 2.369133000000000e-01, 1.218487000000000e-03, -2.277463739324989e-03, 4.020441213228733e-02, -3.902306398959354e-01, -2.051430156337091e+00, -4.326035132081857e+02, -1.112701589511773e+03, 2.787791515920994e+04, -9.039999602136599e+03, -2.906150973619983e+03, 3.737265423075992e+04
41, 2.408804000000000e-01, 9.500542000000000e-04, -2.278781755333767e-03, 4.076333519956630e-02, -4.045651714560343e-01, -2.069120695897576e+00, -4.447521470376992e+02, -1.123733299114104e+03, 4.388057565584847e+04, -8.022650519134477e+03, -3.797650615140228e+02, 5.190878320071877e+04
42, 2.441551000000000e-01, 7.221023000000000e-04, -2.278874115472636e-03, 4.122397628759519e-02, -4.166125351716297e-01, -2.083480420235581e+00, -4.548897515065380e+02, -1.131707344901008e+03, 4.772071868156425e+04, -7.454298813055550e+03, 1.740286496284338e+03, 5.528468995923012e+04
43, 2.467325000000000e-01, 5.343920000000000e-04, -2.277738806252175e-03, 4.158584284020796e-02, -4.262493083790435e-01, -2.094585447118397e+00, -4.629247883978936e+02, -1.137106122065864e+03, 4.216735940783519e+04, -7.237843953341910e+03, 4.123588757833444e+03, 5.008882166845399e+04
44, 2.485345000000000e-01, 4.176267000000000e-04, -2.278953725229248e-03, 4.183818968672023e-02, -4.329798786783803e-01, -2.102299825700537e+00, -4.685154946070564e+02, -1.140421085598031e+03, 2.705337782314993e+04, -7.680546088274663e+03, 6.309163332671063e+03, 3.695494064557427e+04
45, 2.495362000000000e-01, 3.807847000000000e-04, -2.283551594432884e-03, 4.197801655727296e-02, -4.366108476120862e-01, -2.106653001402769e+00, -4.715572510093400e+02, -1.142186557233641e+03, 5.862868428240755e+03, -4.352270601987513e+03, 3.633071945693714e+03, 1.253578527485374e+04
46, 2.500000000000000e-01, 3.150000000000000e-04, -2.278911663422380e-03, 4.204321040276326e-02, -4.385096894809255e-01, -2.108495049608000e+00, -4.730438194697096e+02, -1.142841924809968e+03, 3.813426023668471e+02, 9.409373407090539e+03, 4.514676170799517e+03, 1.276849810744317e+04
47, -1.990233000000000e-01, 8.841386000000000e-03, 0.000000000000000e+00, 0.000000000000000e+00, 0.000000000000000e+00, 0.000000000000000e+00, 0.000000000000000e+00, 0.000000000000000e+00, -8.363333397239771e+06, -2.909386532403341e+06, 1.850296875205676e+06, 6.590897549654574e+06
48, -1.905404000000000e-01, 9.324733000000000e-03, -8.867193218954044e-05, 6.182297010698195e-05, 7.881762118646295e-03, -5.065949252070649e-03, 3.191161077034886e+00, -2.754240465630572e+00, -6.687487732397945e+06, 5.067459399239566e+05, -2.603789739958597e+05, 7.213056701036449e+06
49, -1.814989000000000e-01, 9.756861000000000e-03, -1.842721682121130e-04, 2.077912277699456e-04, 1.632886229441541e-02, -1.593882857827782e-02, 6.234405173947185e+00, -6.809922724024071e+00, -6.206888275482520e+06, -1.528978234625328e+04, -1.975330545251788e+05, 6.204189643356131e+06
50, -1.719248000000000e-01, 1.013586000000000e-02, -2.736216091714480e-04, 4.387123913549268e-04, 2.423113031050629e-02, -3.285397436199668e-02, 8.607563399488120e+00, -1.206263561659872e+01, -5.284950795977605e+06, 4.159827241883353e+04, -1.856608260060379e+05, 5.339476074231247e+06
51, -1.618466000000000e-01, 1.046039000000000e-02, -3.603219133896714e-04, 7.557492135839015e-04, 3.189140070039001e-02, -5.603083558902525e-02, 1.050384268347598e+01, -1.852356999238747e+01, -4.642667272844467e+06, 3.427353308865337e+04, -1.659777382617133e+05, 4.688706617031637e+06
52, -1.512935000000000e-01, 1.072941000000000e-02, -4.439892406724025e-04, 1.156314151766154e-03, 3.922220679481225e-02, -8.527523553829350e-02, 1.193405767118475e+01, -2.603284606477488e+01, -4.100576207318880e+06, 3.667084239039429e+04, -1.503210023929591e+05, 4.148156068106622e+06
53, -1.402968000000000e-01, 1.094255000000000e-02, -5.248869504736346e-04, 1.638383526569843e-03, 4.618258775975499e-02, -1.204241005393252e-01, 1.294677026504612e+01, -3.454945972526905e+01, -3.657361120180504e+06, 3.677078544066043e+04, -1.373305702851407e+05, 3.704328451726119e+06
54, -1.288884000000000e-01, 1.109975000000000e-02, -6.031553516844170e-04, 2.199711941695567e-03, 5.270633594875436e-02, -1.612828384214937e-01, 1.358817847881681e+01, -4.413007105734297e+01, -3.291107894185419e+06, 3.680248949872918e+04, -1.269843718204601e+05, 3.337587099174990e+06
55, -1.171021000000000e-01, 1.120162000000000e-02, -6.789684447852646e-04, 2.837913890232943e-03, 5.870837019227032e-02, -2.076338385163801e-01, 1.389448444356879e+01, -5.495498371103227e+01, -2.989172261510741e+06, 3.688759155011251e+04, -1.191929287000337e+05, 3.035435067879898e+06
56, -1.049722000000000e-01, 1.124912000000000e-02, -7.525330875513092e-04, 3.550541421526168e-03, 6.407708512173246e-02, -2.592512815719737e-01, 1.387352504352480e+01, -6.737142665690173e+01, -2.741983994051718e+06, 3.757336275567603e+04, -1.139751416284112e+05, 2.788888744898042e+06
57, -9.253454000000000e-02, 1.124378000000000e-02, -8.241113474636660e-04, 4.335057419435355e-03, 6.866979150740046e-02, -3.158973376629576e-01, 1.348507010457590e+01, -8.189841916398331e+01, -2.543301699018701e+06, 3.610508617015168e+04, -1.109777198019963e+05, 2.588938697738533e+06
58, -7.982535000000000e-02, 1.118743000000000e-02, -8.940107445864629e-04, 5.189023558255751e-03, 7.232530179880634e-02, -3.772383231304621e-01, 1.265706150283903e+01, -9.904219452118070e+01, -2.386964435366248e+06, 2.814498987740464e+04, -1.087936093520602e+05, 2.424891282850454e+06
59, -6.688208000000000e-02, 1.108242000000000e-02, -9.625354118707745e-04, 6.110267429769303e-03, 7.487062381178769e-02, -4.426941110908562e-01, 1.127400480295938e+01, -1.189978639545405e+02, -2.265440550885529e+06, 8.457065957975403e+03, -1.051955332357216e+05, 2.283610030792816e+06
60, -5.374259000000000e-02, 1.093129000000000e-02, -1.029935641097364e-03, 7.097086892935609e-03, 7.612405327356195e-02, -5.116517821999921e-01, 9.165203181289080e+00, -1.421232741860598e+02, -2.161576696149090e+06, -2.609175617698460e+03, -1.003901527177185e+05, 2.168283534448438e+06
61, -4.044550000000000e-02, 1.073696000000000e-02, -1.096350473557455e-03, 8.147344502966296e-03, 7.589843546703509e-02, -5.836508239351743e-01, 6.112182142911497e+00, -1.690601237700323e+02, -2.064833657923180e+06, -2.194927968389595e+03, -9.561623843019965e+04, 2.071484586115879e+06
62, -2.702974000000000e-02, 1.050249000000000e-02, -1.161777204820691e-03, 9.258184903790366e-03, 7.397990318535379e-02, -6.582406261460754e-01, 1.801198909590333e+00, -2.000915586426358e+02, -1.972438945562240e+06, -5.260390456714631e+02, -9.135298253754820e+04, 1.980359053444765e+06
63, -1.353473000000000e-02, 1.023115000000000e-02, -1.226179093875913e-03, 1.042629367280254e-02, 7.013486949023345e-02, -7.346505832299047e-01, -4.149997381542853e+00, -2.348651031668277e+02, -1.883125267638159e+06, -7.115509237451370e+02, -8.749097278318393e+04, 1.890529048216071e+06
64, -9.637083000000000e-13, 9.926297000000001e-03, -1.289529948365105e-03, 1.164799544926183e-02, 6.419397951685460e-02, -8.117880703873446e-01, -1.202667879081539e+01, -2.724908594296890e+02, -1.795568056886859e+06, -1.767830259136877e+03, -8.380811852507087e+04, 1.801614402687911e+06
65, 1.353473000000000e-02, 9.591344000000000e-03, -1.351801348238934e-03, 1.291917524112971e-02, 5.614895547752084e-02, -8.884521603974563e-01, -2.188251080096143e+01, -3.116152070796849e+02, -1.708221217475987e+06, -2.547023290275716e+03, -8.018501969902690e+04, 1.713196721409310e+06
66, 2.702974000000000e-02, 9.229734000000000e-03, -1.412948671236556e-03, 1.423522963088488e-02, 4.613084465551545e-02, -9.637882407793581e-01, -3.354716477762864e+01, -3.511568606875170e+02, -1.619873809012346e+06, -3.002915743777732e+03, -7.654914547067419e+04, 1.624103005411990e+06
67, 4.044550000000000e-02, 8.844876000000000e-03, -1.472903888039763e-03, 1.559106078835881e-02, 3.429409581630743e-02, -1.037880791555798e+00, -4.676210628535605e+01, -3.911111582094784e+02, -1.529610478288805e+06, -3.044107261518307e+03, -7.288998150722963e+04, 1.533511226815088e+06
68, 5.374259000000000e-02, 8.440148000000000e-03, -1.531578660542607e-03, 1.698104417804399e-02, 2.071876028314029e-02, -1.111182785941288e+00, -6.133577293088432e+01, -4.320864689672798e+02, -1.437025292580214e+06, -2.653143786346061e+03, -6.920451601636647e+04, 1.441034531641687e+06
69, 6.688208000000000e-02, 8.018835000000000e-03, -1.588865561390246e-03, 1.839906117102582e-02, 5.385819299214112e-03, -1.183420007023558e+00, -7.721251391628431e+01, -4.741203359602728e+02, -1.342396419270727e+06, -2.443085922256165e+03, -6.544434538378648e+04, 1.346330860124110e+06
70, 7.982535000000000e-02, 7.584165000000000e-03, -1.644646412760908e-03, 1.983851866693586e-02, -1.170886762798090e-02, -1.254152932938585e+00, -9.437635384319356e+01, -5.169712914697927e+02, -1.246107368162466e+06, -2.532718475026912e+03, -6.156293979173325e+04, 1.249655109047468e+06
71, 9.253454000000000e-02, 7.139249000000000e-03, -1.698790119669056e-03, 2.129243213623520e-02, -3.048089184815261e-02, -1.323065967117727e+00, -1.127543109463377e+02, -5.604133410889063e+02, -1.148497490291877e+06, -2.690746355127039e+03, -5.753852240094086e+04, 1.151571022860193e+06
72, 1.049722000000000e-01, 6.687137000000000e-03, -1.751153509690447e-03, 2.275341271292452e-02, -5.079314437510296e-02, -1.389932230345209e+00, -1.322261795723645e+02, -6.042521397595225e+02, -1.049977905569563e+06, -2.822794059235957e+03, -5.336441063127498e+04, 1.052580100918832e+06
73, 1.171021000000000e-01, 6.230763000000000e-03, -1.801581541477008e-03, 2.421380004955207e-02, -7.248528521239939e-02, -1.454548827198020e+00, -1.526508094896066e+02, -6.482737184679813e+02, -9.511192484008758e+05, -2.986905147980868e+03, -4.905796490189771e+04, 9.531955077545680e+05
74, 1.288884000000000e-01, 5.773013000000000e-03, -1.849911216100264e-03, 2.566561850094629e-02, -9.537595536449628e-02, -1.516713083309893e+00, -1.738724128576570e+02, -6.922169988663718e+02, -8.526071306933695e+05, -3.205950443769703e+03, -4.464867485439318e+04, 8.540821867211765e+05
75, 1.402968000000000e-01, 5.316684000000000e-03, -1.895979679366341e-03, 2.710077838124767e-02, -1.192602269296948e-01, -1.576243968402645e+00, -1.957198409782074e+02, -7.357889153676217e+02, -7.552124365423042e+05, -3.484277531715950e+03, -4.018185961486617e+04, 7.560116086528590e+05
76, 1.512935000000000e-01, 4.864536000000000e-03, -1.939624998357793e-03, 2.851101784105749e-02, -1.439083166524160e-01, -1.632987701967022e+00, -2.180044488238572e+02, -7.786754288762725e+02, -6.597550948953023e+05, -3.838816988189548e+03, -3.571008931809889e+04, 6.597931536019051e+05
77, 1.618466000000000e-01, 4.419268000000000e-03, -1.980699078568322e-03, 2.988815524393430e-02, -1.690737606867838e-01, -1.686824011375703e+00, -2.405267775163799e+02, -8.205532749492929e+02, -5.670539653396498e+05, -4.225801190079816e+03, -3.130443809723392e+04, 5.662997560818030e+05
78, 1.719248000000000e-01, 3.983556000000000e-03, -2.019064910703347e-03, 3.122400073502627e-02, -1.944961098017661e-01, -1.737654094418987e+00, -2.630787747825201e+02, -8.610861269488302e+02, -4.779746793130372e+05, -4.648462455423745e+03, -2.703397884549791e+04, 4.764042942854481e+05
79, 1.814989000000000e-01, 3.560046000000000e-03, -2.054614198550000e-03, 3.251063407725005e-02, -2.199088306787413e-01, -1.785403378411443e+00, -2.854503904753946e+02, -8.999327322492732e+02, -3.934132050350211e+05, -5.130055545047859e+03, -2.297169689532086e+04, 3.909918152734848e+05
80, 1.905404000000000e-01, 3.151355000000000e-03, -2.087259493891572e-03, 3.374030511107689e-02, -2.450405534378346e-01, -1.830009592515914e+00, -3.074295598162118e+02, -9.367454929789913e+02, -3.142626466618134e+05, -5.660741173765962e+03, -1.918680185833335e+04, 3.109785676426232e+05
81, 1.990233000000000e-01, 2.760025000000000e-03, -2.116949236633793e-03, 3.490576013709831e-02, -2.696241784409119e-01, -1.871425881684749e+00, -3.288089639897648e+02, -9.711828107996033e+02, -2.414007872587525e+05, -6.233281141439211e+03, -1.573988799219263e+04, 2.372651095914940e+05
82, 2.069223000000000e-01, 2.388589000000000e-03, -2.143663438521296e-03, 3.600007966673356e-02, -2.933960371361155e-01, -1.909605851490976e+00, -3.493838356053141e+02, -1.002909102039005e+03, -1.756844230893768e+05, -6.840504829550088e+03, -1.267959315233857e+04, 1.707376849537512e+05
83, 2.142143000000000e-01, 2.039626000000000e-03, -2.167438986289760e-03, 3.701695992950030e-02, -3.161026967309561e-01, -1.944506022667432e+00, -3.689564581549305e+02, -1.031612550321074e+03, -1.179095748569989e+05, -7.463890505877460e+03, -1.002513391902242e+04, 1.122508905629033e+05
84, 2.208774000000000e-01, 1.715579000000000e-03, -2.188336788173815e-03, 3.795064816385715e-02, -3.375009844729076e-01, -1.976077909401672e+00, -3.873351120918545e+02, -1.057018082430399e+03, -6.877997512967666e+04, -8.081525851119195e+03, -7.763746572025060e+03, 6.265305090863604e+04
85, 2.268939000000000e-01, 1.418304000000000e-03, -2.206408189922767e-03, 3.879642782258860e-02, -3.573702189681118e-01, -2.004283708003662e+00, -4.043439931297502e+02, -1.078922133730411e+03, -2.887609716099229e+04, -8.677218125326159e+03, -5.855450220911517e+03, 2.334823127039313e+04
86, 2.322460000000000e-01, 1.149879000000000e-03, -2.221764306089585e-03, 3.955005747317033e-02, -3.754966368729731e-01, -2.029083442205465e+00, -4.198099920495888e+02, -1.097206512953239e+03, 1.415941730669599e+03, -9.204548259181804e+03, -4.205634350861221e+03, 1.354785033860020e+04
87, 2.369133000000000e-01, 9.138651000000000e-04, -2.234725811147673e-03, 4.020743253714633e-02, -3.916590418741999e-01, -2.050434791160899e+00, -4.335522902216298e+02, -1.111867602536243e+03, 2.194835671484253e+04, -9.620184393893074e+03, -2.625619505791623e+03, 3.200231708627836e+04
88, 2.408804000000000e-01, 7.125407000000000e-04, -2.245505088103846e-03, 4.076568539795482e-02, -4.056650113243012e-01, -2.068330355391772e+00, -4.454141556202304e+02, -1.123070639034953e+03, 3.278543608077707e+04, -9.799873943675117e+03, -1.008477053163741e+03, 4.263304743676834e+04
89, 2.441551000000000e-01, 5.415768000000000e-04, -2.253632011974832e-03, 4.122575583185168e-02, -4.174377012503057e-01, -2.082870315341953e+00, -4.553323672161686e+02, -1.131194692383767e+03, 3.467248059375787e+04, -9.776817791028103e+03, 5.956279119108603e+02, 4.446525854346881e+04
90, 2.467325000000000e-01, 4.007940000000000e-04, -2.259098172807386e-03, 4.158715394213178e-02, -4.268526969422537e-01, -2.094128379874408e+00, -4.632115874354223e+02, -1.136720970979367e+03, 2.962115468812683e+04, -9.535903583611638e+03, 2.806814129148918e+03, 3.955740176905810e+04
91, 2.485345000000000e-01, 3.132200000000000e-04, -2.264410298653819e-03, 4.183921034360938e-02, -4.334474195704692e-01, -2.101939755463429e+00, -4.687168942711965e+02, -1.140116763701411e+03, 1.718031346138231e+04, -9.722629935018480e+03, 4.801599671071644e+03, 2.856553519531685e+04
92, 2.495362000000000e-01, 2.855885000000000e-04, -2.270300780227214e-03, 4.197894431625492e-02, -4.370356925067256e-01, -2.106323464953761e+00, -4.717322477558181e+02, -1.141906965520406e+03, 4.911961653530534e+02, -4.848647278681685e+03, 1.198074050735893e+03, 5.852815880496124e+03
93, 2.501265000000000e-01, 1.963230000000000e-04, -2.263627327999401e-03, 4.206197099139769e-02, -4.394765005281642e-01, -2.108648375370315e+00, -4.736325551043016e+02, -1.142723461456501e+03, -4.522319453717681e+03, 4.496975595657549e+03, 4.271810220275990e+03, 1.242341069996086e+04
94, -1.990233000000000e-01, 5.894257000000000e-03, 0.000000000000000e+00, 0.000000000000000e+00, 0.000000000000000e+00, 0.000000000000000e+00, 0.000000000000000e+00, 0.000000000000000e+00, -5.236109457321007e+06, -1.815494691718310e+06, 1.570227036189444e+06, 4.643603897338826e+06
95, -1.905404000000000e-01, 6.216489000000000e-03, -5.559104814067294e-05, 5.232659332453601e-05, 5.370485717371254e-03, -4.192276052442684e-03, 2.327735557282833e+00, -2.321956380381878e+00, -4.443803838728158e+06, 1.291691754141852e+05, 2.510966950546769e+05, 4.600465236162929e+06
96, -1.814989000000000e-01, 6.504574000000000e-03, -1.193519356501587e-04, 1.994622910876794e-04, 1.150222990169905e-02, -1.512539873053838e-02, 4.771420886102208e+00, -6.338406149739397e+00, -4.142211754728761e+06, 1.220826888559940e+05, 1.614017801354503e+05, 4.276494971365146e+06
97, -1.719248000000000e-01, 6.757240000000000e-03, -1.806072011045299e-04, 4.323469310875355e-04, 1.741206383951035e-02, -3.217576690151082e-02, 6.763265388553180e+00, -1.157879207798527e+01, -3.575219328554889e+06, 3.469329858895599e+04, 1.292963158501010e+05, 3.619162793351829e+06
98, -1.618466000000000e-01, 6.973592000000000e-03, -2.399140412221732e-04, 7.508109228698733e-04, 2.310669872961444e-02, -5.542774801120746e-02, 8.292241341984493e+00, -1.796322553960750e+01, -3.104645533293328e+06, 5.216617577510883e+04, 9.177742171009255e+04, 3.162143663253552e+06
99, -1.512935000000000e-01, 7.152941000000000e-03, -2.982012019884665e-04, 1.152934201644432e-03, 2.862460438834149e-02, -8.474323526714875e-02, 9.402912634731814e+00, -2.537014668774080e+01, -2.742219654971766e+06, 4.927061106625935e+04, 6.634686657254185e+04, 2.794642290562609e+06
100, -1.402968000000000e-01, 7.295031000000000e-03, -3.555610920502624e-04, 1.636523117007295e-03, 3.391589056419345e-02, -1.199416253192875e-01, 1.010662563306845e+01, -3.375516699950025e+01, -2.440122224212360e+06, 4.802256558574422e+04, 4.585494718843178e+04, 2.489834371946468e+06
101, -1.288884000000000e-01, 7.399830000000000e-03, -4.122154252707084e-04, 2.199345854072018e-03, 3.892500912479702e-02, -1.608298566025881e-01, 1.041833101672872e+01, -4.318480952735820e+01, -2.191461474938396e+06, 4.635314583253233e+04, 2.893567555730051e+04, 2.238562791215821e+06
102, -1.171021000000000e-01, 7.467748000000000e-03, -4.683582785997734e-04, 2.838991789734458e-03, 4.357197243831587e-02, -2.071898528582921e-01, 1.033902167430981e+01, -5.385025819166467e+01, -1.986540256042625e+06, 4.506430824367466e+04, 1.417986184934041e+04, 2.031802495213841e+06
103, -1.049722000000000e-01, 7.499411000000000e-03, -5.241990330839062e-04, 3.553001288587368e-03, 4.775068093512321e-02, -2.587943790534153e-01, 9.844260232592951e+00, -6.610485992603509e+01, -1.818947106720592e+06, 4.425776550301521e+04, 3.799933089274855e+02, 1.863205027219883e+06
104, -9.253454000000000e-02, 7.495851000000000e-03, -5.799715155274570e-04, 4.338841469126691e-03, 5.133256529249512e-02, -3.153926166512487e-01, 8.886466434550398e+00, -8.045033839460795e+01, -1.683859345553630e+06, 4.165282308687299e+04, -1.283116521872932e+04, 1.725702986996874e+06
105, -7.982535000000000e-02, 7.458289000000000e-03, -6.359153023562497e-04, 5.194099461620818e-03, 5.418190238026808e-02, -3.766317911034872e-01, 7.417169930570727e+00, -9.736627336473265e+01, -1.576616947128035e+06, 3.276651042343716e+04, -2.400827789514299e+04, 1.610099594146366e+06
106, -6.688208000000000e-02, 7.388282000000000e-03, -6.922455956418751e-04, 6.116629212492520e-03, 5.614290135182959e-02, -4.419541819388834e-01, 5.338982182189042e+00, -1.171117812361433e+02, -1.492544565512810e+06, 1.514244625634879e+04, -2.929966284059366e+04, 1.508825373072612e+06
107, -5.374259000000000e-02, 7.287529000000000e-03, -7.491769448795028e-04, 7.104647824687998e-03, 5.702421670176024e-02, -5.107670403107629e-01, 2.475825082181945e+00, -1.400688602783314e+02, -1.421604964344359e+06, 4.919858800623857e+03, -2.872276930348738e+04, 1.427681008122847e+06
108, -4.044550000000000e-02, 7.157976000000000e-03, -8.068945827734706e-04, 8.156002680428646e-03, 5.662277426640840e-02, -5.825960379047166e-01, -1.362481832641489e+00, -1.668223687837006e+02, -1.356738264670646e+06, 5.080961747283709e+03, -2.649829169810575e+04, 1.362850044316395e+06
109, -2.702974000000000e-02, 7.001662000000000e-03, -8.654607482203840e-04, 9.267878539146106e-03, 5.473929030881765e-02, -6.569605354177905e-01, -6.392386772706882e+00, -1.976396834708924e+02, -1.295174147701946e+06, 6.781827129050725e+03, -2.462752681085796e+04, 1.302887339989690e+06
110, -1.353473000000000e-02, 6.820770000000000e-03, -9.248659004525152e-04, 1.043696638992070e-02, 5.117646243095698e-02, -7.330923501455786e-01, -1.287875669326524e+01, -2.321822363928539e+02, -1.235527370293674e+06, 6.782411337582860e+03, -2.286573206803690e+04, 1.243151221834548e+06
111, -9.637083000000000e-13, 6.617531000000000e-03, -9.850905280702948e-04, 1.165957479367934e-02, 4.577684812116534e-02, -8.099153339868088e-01, -2.102572458686991e+01, -2.695538280332478e+02, -1.177001963782639e+06, 6.002605687285115e+03, -2.089244761979507e+04, 1.183742281434985e+06
112, 1.353473000000000e-02, 6.394229000000000e-03, -1.046108359068270e-03, 1.293157256899238e-02, 3.847868488043465e-02, -8.862623282110851e-01, -3.089458770446852e+01, -3.084451319623145e+02, -1.118741956066208e+06, 5.479840262918591e+03, -1.870106836691641e+04, 1.124843796788579e+06
113, 2.702974000000000e-02, 6.153156000000000e-03, -1.107866729282108e-03, 1.424834510838855e-02, 2.928818138496125e-02, -9.613346199101496e-01, -4.243823694163174e+01, -3.478301022916912e+02, -1.059968224937430e+06, 5.278100720418079e+03, -1.638276097975735e+04, 1.065750117877932e+06
114, 4.044550000000000e-02, 5.896584000000000e-03, -1.170278030208933e-03, 1.560478345501279e-02, 1.825025352355630e-02, -1.035189106839867e+00, -5.553654854869799e+01, -3.876712663517101e+02, -1.000053088320571e+06, 5.441328488497566e+03, -1.406616978447481e+04, 1.005887891747302e+06
115, 5.374259000000000e-02, 5.626765000000000e-03, -1.233219757462789e-03, 1.699525262284129e-02, 5.451883092361609e-03, -1.108218171277083e+00, -7.002045644241429e+01, -4.285060344896032e+02, -9.386900393124967e+05, 5.927722072559422e+03, -1.192804583288179e+04, 9.449189532619610e+05
116, 6.688208000000000e-02, 5.345890000000000e-03, -1.296533224094372e-03, 1.841362661329778e-02, -9.069378822162799e-03, -1.180216324704892e+00, -8.578158191399467e+01, -4.704234044300323e+02, -8.760269177772952e+05, 6.198302132389832e+03, -1.002095675599933e+04, 8.824528411999786e+05
117, 7.982535000000000e-02, 5.056110000000000e-03, -1.360027621412560e-03, 1.985330510191370e-02, -2.531121086026966e-02, -1.250765493788788e+00, -1.027797473811443e+02, -5.132089128581495e+02, -8.123164464941367e+05, 6.129069503104140e+03, -8.267725024488274e+03, 8.186125357971938e+05
118, 9.253454000000000e-02, 4.759500000000000e-03, -1.423481718092849e-03, 2.130729739124473e-02, -4.320739018624997e-02, -1.319541939636622e+00, -1.209436489563906e+02, -5.566316711128630e+02, -7.477993540190570e+05, 5.922346761536470e+03, -6.637549671177549e+03, 7.538385971082536e+05
119, 1.049722000000000e-01, 4.458091000000000e-03, -1.486643438097926e-03, 2.276821154805950e-02, -6.263381747292418e-02, -1.386314149434754e+00, -1.401551210107661e+02, -6.004900032826429e+02, -6.827583484466050e+05, 5.661276947670665e+03, -5.135679433540252e+03, 6.884962464973729e+05
120, 1.171021000000000e-01, 4.153842000000000e-03, -1.549232674742098e-03, 2.422838726514592e-02, -8.343782362551211e-02, -1.450881005645237e+00, -1.602721421677663e+02, -6.445677633332540e+02, -6.175657202828310e+05, 5.286652555999723e+03, -3.790946238459510e+03, 6.228985177735562e+05
121, 1.288884000000000e-01, 3.848675000000000e-03, -1.610941864622351e-03, 2.567985186067294e-02, -1.054445790055399e-01, -1.513042346254401e+00, -1.811382402809037e+02, -6.886034960145561e+02, -5.526731163782796e+05, 4.776737302714284e+03, -2.603459460647180e+03, 5.574741710372008e+05
122, 1.402968000000000e-01, 3.544456000000000e-03, -1.671447456318343e-03, 2.711452162841797e-02, -1.284564425514864e-01, -1.572617131082546e+00, -2.025840280755077e+02, -7.323022848579046e+02, -4.885866684759541e+05, 4.126393385367652e+03, -1.593581904111561e+03, 4.927233699977089e+05
123, 1.512935000000000e-01, 3.243024000000000e-03, -1.730409727405706e-03, 2.852414396688263e-02, -1.522510135135846e-01, -1.629449667729876e+00, -2.244249233544480e+02, -7.753468228028985e+02, -4.258519292316644e+05, 3.331911491664734e+03, -7.535483265454241e+02, 4.291864868310158e+05
124, 1.618466000000000e-01, 2.946179000000000e-03, -1.787489008962650e-03, 2.990054944893226e-02, -1.765882655723661e-01, -1.683416784618848e+00, -2.464668595867230e+02, -8.174099535375357e+02, -3.650071838536283e+05, 2.436407929052722e+03, -1.093507394442422e+02, 3.674436568679536e+05
125, 1.719248000000000e-01, 2.655704000000000e-03, -1.842343512232490e-03, 3.123556349189665e-02, -2.012130837952348e-01, -1.734415856993120e+00, -2.685080929748711e+02, -8.581510991160150e+02, -3.066243925648622e+05, 1.450065870522463e+03, 3.336198560189951e+02, 3.080751810014705e+05
126, 1.814989000000000e-01, 2.373364000000000e-03, -1.894649927287521e-03, 3.252128380620398e-02, -2.258632468969828e-01, -1.782367483199410e+00, -2.903457899210217e+02, -8.972243723653137e+02, -2.512912820278760e+05, 3.627268187392692e+02, 5.574746598637794e+02, 2.516564787176318e+05
127, 1.905404000000000e-01, 2.100903000000000e-03, -1.944098097101787e-03, 3.374998038601650e-02, -2.502708191866898e-01, -1.827203627681280e+00, -3.117760418039051e+02, -9.342771538640218e+02, -1.995981412913983e+05, -7.993178816063810e+02, 5.735288487865037e+02, 1.988021326104909e+05
128, 1.990233000000000e-01, 1.840017000000000e-03, -1.990411760989038e-03, 3.491442128910092e-02, -2.741712852995388e-01, -1.868871009803271e+00, -3.326005197427436e+02, -9.689626743446867e+02, -1.521214112900878e+05, -2.014441895526877e+03, 3.812254227525773e+02, 1.501089057721475e+05
129, 2.069223000000000e-01, 1.592393000000000e-03, -2.033344129369038e-03, 3.600771002252417e-02, -2.973030786970039e-01, -1.907316308728587e+00, -3.526244342507437e+02, -1.000940123733195e+03, -1.094277503494917e+05, -3.257912477259292e+03, 9.358985558854329e+00, 1.061698395222417e+05
130, 2.142143000000000e-01, 1.359751000000000e-03, -2.072704775297207e-03, 3.702356654047814e-02, -3.194147871230635e-01, -1.942488785148796e+00, -3.716611441236399e+02, -1.029892503303370e+03, -7.204196762628178e+04, -4.494429996090214e+03, -5.002874281822515e+02, 6.755494793089056e+04
131, 2.208774000000000e-01, 1.143720000000000e-03, -2.108338464080520e-03, 3.795626129812495e-02, -3.402653450371027e-01, -1.974332741022574e+00, -3.895308114456822e+02, -1.055539869176653e+03, -4.043160765372610e+04, -5.683396710001792e+03, -1.066878902412416e+03, 3.481366234912972e+04
132, 2.268939000000000e-01, 9.455361000000000e-04, -2.140116147028522e-03, 3.880109825934747e-02, -3.596358619033926e-01, -2.002803904009275e+00, -4.060693616394887e+02, -1.077674595889096e+03, -1.498073986439578e+04, -6.797683496671077e+03, -1.604364048857775e+03, 8.789672776755064e+03
133, 2.322460000000000e-01, 7.665862000000001e-04, -2.167970703483005e-03, 3.955385568422538e-02, -3.773153241506075e-01, -2.027855946607945e+00, -4.211155499301881e+02, -1.096174593798939e+03, 4.051129781984072e+03, -7.783797793881024e+03, -1.973275877374879e+03, 1.247560745931397e+04
134, 2.369133000000000e-01, 6.092434000000000e-04, -2.191989591779421e-03, 4.021045156569000e-02, -3.930880673829991e-01, -2.049438971533270e+00, -4.345008184768264e+02, -1.111031280864186e+03, 1.655289423230518e+04, -8.577185140865582e+03, -1.957395285894957e+03, 2.543317665025032e+04
135, 2.408804000000000e-01, 4.750271000000000e-04, -2.212229211269711e-03, 4.076803403111896e-02, -4.067652512170137e-01, -2.067539672197757e+00, -4.460760916050980e+02, -1.122406157820625e+03, 2.258129051400476e+04, -9.056742875157795e+03, -1.456739060360522e+03, 3.177189814118264e+04
136, 2.441551000000000e-01, 3.610512000000000e-04, -2.228390165852216e-03, 4.122753409167786e-02, -4.182631201431477e-01, -2.082259979740718e+00, -4.557750428111756e+02, -1.130680778168622e+03, 2.264076677760485e+04, -9.301097882276588e+03, -5.298553845664992e+02, 3.195943843161828e+04
137, 2.467325000000000e-01, 2.671960000000000e-04, -2.240457570953025e-03, 4.158846415208704e-02, -4.274562337256140e-01, -2.093671168216193e+00, -4.634984774839455e+02, -1.136335022317547e+03, 1.808459835041441e+04, -9.166411145672208e+03, 1.412452639705527e+03, 2.739703648925277e+04
138, 2.485345000000000e-01, 2.088133000000000e-04, -2.249866669057794e-03, 4.184023049845509e-02, -4.339150744146121e-01, -2.101579630106194e+00, -4.689185328389023e+02, -1.139812002146309e+03, 8.301014255799828e+03, -9.735876880018608e+03, 3.075415885458662e+03, 1.905681435391266e+04
139, 2.495362000000000e-01, 1.903924000000000e-04, -2.257049283583152e-03, 4.197987153316880e-02, -4.374606608802232e-01, -2.105993899046320e+00, -4.719078732156164e+02, -1.141627021431141e+03, -3.674955104699736e+03, -2.821449255122763e+03, -1.300554162069746e+03, 2.737560364479633e+03
140, 2.502041000000000e-01, 1.235855000000000e-04, -2.254261661438963e-03, 4.207347858027126e-02, -4.400689869488081e-01, -2.108742663159501e+00, -4.739927147311955e+02, -1.142650927397857e+03, -1.092790205750131e+04, -3.081914981652521e+02, 2.661570166703759e+03, 1.187914455561611e+04
141, -1.990233000000000e-01, 2.947129000000000e-03, 0.000000000000000e+00, 0.000000000000000e+00, 0.000000000000000e+00, 0.000000000000000e+00, 0.000000000000000e+00, 0.000000000000000e+00, -2.496368348471016e+06, -8.596099953351191e+05, 1.423069904488194e+06, 3.283213322158687e+06
142, -1.905404000000000e-01, 3.108244000000000e-03, -2.652398203464658e-05, 4.734114624244770e-05, 3.206281647158010e-03, -3.672671765989696e-03, 1.651536968672015e+00, -2.015065919149534e+00, -2.183409037166705e+06, -1.071093145561172e+03, 4.389523009168957e+05, 2.352300021645917e+06
143, -1.814989000000000e-01, 3.252287000000000e-03, -5.812561207132092e-05, 1.945125588950834e-04, 6.981473685265693e-03, -1.455197091340004e-02, 3.452206649303052e+00, -5.929089035024502e+00, -2.046925172239372e+06, 9.049096384715990e+04, 4.403055946131185e+05, 2.311714473154833e+06
144, -1.719248000000000e-01, 3.378620000000000e-03, -8.987132233391042e-05, 4.289243046598393e-04, 1.077112822853662e-02, -3.170211218004983e-02, 4.976157905881990e+00, -1.113821195118501e+01, -1.778023641839960e+06, 3.885548165731573e+04, 3.346154352866415e+05, 1.936212722695650e+06
145, -1.618466000000000e-01, 3.486796000000000e-03, -1.215735806800974e-04, 7.486296211359439e-04, 1.448453576470752e-02, -5.501895068936468e-02, 6.116135348889058e+00, -1.744813997283344e+01, -1.536939965478663e+06, 4.494095590641267e+04, 2.711011519398225e+05, 1.672223246990213e+06
146, -1.512935000000000e-01, 3.576470000000000e-03, -1.540596515617177e-04, 1.152020064784429e-03, 1.815463251115324e-02, -8.438275959727465e-02, 6.878513652426975e+00, -2.474823522782367e+01, -1.352698869281298e+06, 4.851102151470385e+04, 2.206056427835082e+05, 1.469032524002190e+06
147, -1.402968000000000e-01, 3.647516000000000e-03, -1.875851047835557e-04, 1.636918980780669e-03, 2.175212602718984e-02, -1.196138621101006e-01, 7.250061356965126e+00, -3.300312368821371e+01, -1.200582710752282e+06, 4.755129938042676e+04, 1.802423434438880e+05, 1.299148843177922e+06
148, -1.288884000000000e-01, 3.699915000000000e-03, -2.223676518137789e-04, 2.201043061673769e-03, 2.522437884538411e-02, -1.605151748205949e-01, 7.209953681727518e+00, -4.228606364342131e+01, -1.074171086346937e+06, 4.690195658108605e+04, 1.466860848217988e+05, 1.158823540277504e+06
149, -1.171021000000000e-01, 3.733874000000000e-03, -2.586249387660137e-04, 2.841967920583856e-03, 2.849828006597574e-02, -2.068686260134287e-01, 6.726874635231813e+00, -5.279833144113798e+01, -9.700402343816934e+05, 4.599138579895745e+04, 1.180385205431246e+05, 1.043097609303634e+06
150, -1.049722000000000e-01, 3.749705000000000e-03, -2.965546595485920e-04, 3.557217960505872e-03, 3.147616066761894e-02, -2.584437847791637e-01, 5.752123938374394e+00, -6.489627320745731e+01, -8.845977319797553e+05, 4.517200729056176e+04, 9.247207893378461e+04, 9.479852897551405e+05
151, -9.253454000000000e-02, 3.747926000000000e-03, -3.363523518857930e-04, 4.344263023542396e-03, 3.404381997167635e-02, -3.149769372819674e-01, 4.232180871687500e+00, -7.906421607647144e+01, -8.152723404500182e+05, 4.253957695099468e+04, 6.936480398812248e+04, 8.689575304722578e+05
152, -7.982535000000000e-02, 3.729145000000000e-03, -3.781947228032854e-04, 5.200710713937902e-03, 3.608100232217295e-02, -3.761013168277739e-01, 2.123695429243439e+00, -9.576507075627282e+01, -7.596716098452772e+05, 3.444359966438144e+04, 5.045086179532297e+04, 8.004999211730954e+05
153, -6.688208000000000e-02, 3.694141000000000e-03, -4.222351784280622e-04, 6.124424449963736e-03, 3.744173355332489e-02, -4.412774409059829e-01, -6.592248479047083e-01, -1.153075641959280e+02, -7.160900670400008e+05, 2.016489969933982e+04, 3.981830264133847e+04, 7.405493669900047e+05
154, -5.374259000000000e-02, 3.643765000000000e-03, -4.686564194648523e-04, 7.113553110323848e-03, 3.793595488931185e-02, -5.099297419285651e-01, -4.271168632883152e+00, -1.380921083577829e+02, -6.798865415782020e+05, 1.176806788034245e+04, 3.737178308107416e+04, 6.956814640824400e+05
155, -4.044550000000000e-02, 3.578988000000000e-03, -5.176540707206731e-04, 8.165924877838727e-03, 3.735895933228554e-02, -5.815712665978974e-01, -8.862574497598661e+00, -1.646570551182857e+02, -6.473775186338633e+05, 1.194878574444202e+04, 3.801623847051981e+04, 6.636957986871270e+05
156, -2.702974000000000e-02, 3.500831000000000e-03, -5.693338609529008e-04, 9.278754971783931e-03, 3.552108946207716e-02, -6.556963477059519e-01, -1.457331065597136e+01, -1.952530208699752e+02, -6.167706176634552e+05, 1.375474436127116e+04, 3.862334975216894e+04, 6.352395490999641e+05
157, -1.353473000000000e-02, 3.410385000000000e-03, -6.237177958913157e-04, 1.044873989557748e-02, 3.224361326786530e-02, -7.315385705523161e-01, -2.157016857445214e+01, -2.295523316762452e+02, -5.870667169773910e+05, 1.412081526584441e+04, 3.913115687893245e+04, 6.062602070723806e+05
158, -9.637083000000000e-13, 3.308766000000000e-03, -6.807986502611189e-04, 1.167217274215074e-02, 2.736741179148922e-02, -8.080398985347041e-01, -2.999320610585758e+01, -2.666613344729502e+02, -5.579016936283065e+05, 1.376388983696634e+04, 3.993580486271503e+04, 5.772183411490163e+05
159, 1.353473000000000e-02, 3.197115000000000e-03, -7.405500623735929e-04, 1.294490649376272e-02, 2.077643181367519e-02, -8.840692915120212e-01, -3.991742865900299e+01, -3.053147062855843e+02, -5.289689613706138e+05, 1.359332710446867e+04, 4.102895504907247e+04, 5.487324826224467e+05
160, 2.702974000000000e-02, 3.076578000000000e-03, -8.029098095498114e-04, 1.426231534186372e-02, 1.238184453429930e-02, -9.588747930963044e-01, -5.138307000265976e+01, -3.445353834401675e+02, -4.999199203103060e+05, 1.368784567969752e+04, 4.221836954864301e+04, 5.205021615657569e+05
161, 4.044550000000000e-02, 2.948292000000000e-03, -8.677694787294747e-04, 1.561927971605599e-02, 2.150130662525340e-03, -1.032486685266226e+00, -6.436758292772384e+01, -3.842552052853282e+02, -4.704229671464737e+05, 1.404856984367613e+04, 4.326151333848719e+04, 4.921370787686521e+05
162, 5.374259000000000e-02, 2.813383000000000e-03, -9.349708351225121e-04, 1.701015497013054e-02, -9.850070196191274e-03, -1.105248254619300e+00, -7.874218898774576e+01, -4.249516017932818e+02, -4.402906814735596e+05, 1.459500783214467e+04, 4.387969362750401e+04, 4.632738934868876e+05
163, 6.688208000000000e-02, 2.672945000000000e-03, -1.004302866034720e-03, 1.842880821320444e-02, -2.355443002226976e-02, -1.177008626227672e+00, -9.437838597071136e+01, -4.667525866482846e+02, -4.095913967899638e+05, 1.488164529217159e+04, 4.395754782464447e+04, 4.334817499012916e+05
164, 7.982535000000000e-02, 2.528055000000000e-03, -1.075502893445081e-03, 1.986863265044214e-02, -3.894478730554307e-02, -1.247373470246337e+00, -1.112093686940685e+02, -5.094705529576407e+02, -3.784613133298920e+05, 1.479282330299230e+04, 4.357539641427678e+04, 4.027953285100520e+05
165, 9.253454000000000e-02, 2.379750000000000e-03, -1.148259509217391e-03, 2.132263223553647e-02, -5.596441755634585e-02, -1.316012886561792e+00, -1.291574914317457e+02, -5.528713273205033e+02, -3.470311763637080e+05, 1.449281272431256e+04, 4.277992908691072e+04, 3.715105436146323e+05
166, 1.049722000000000e-01, 2.229046000000000e-03, -1.222212011750447e-03, 2.278341259747394e-02, -7.450229268237862e-02, -1.382691076453169e+00, -1.481054049410879e+02, -5.967464951333004e+02, -3.154481935863486e+05, 1.405180460297089e+04, 4.156927442613120e+04, 3.398268192948014e+05
167, 1.171021000000000e-01, 2.076921000000000e-03, -1.296954390077269e-03, 2.424331405950849e-02, -9.441512531534024e-02, -1.447208526835903e+00, -1.679114307755153e+02, -6.408778075644203e+02, -2.838949005349656e+05, 1.341667394192968e+04, 3.991957504567872e+04, 3.078448671088098e+05
168, 1.288884000000000e-01, 1.924338000000000e-03, -1.372035226264223e-03, 2.569436733730594e-02, -1.155352509136195e-01, -1.509367354477307e+00, -1.884191251819803e+02, -6.850033461576101e+02, -2.525932569246250e+05, 1.256937632905748e+04, 3.785882951452855e+04, 2.757614656961111e+05
169, 1.402968000000000e-01, 1.772228000000000e-03, -1.446969871208144e-03, 2.712849509577536e-02, -1.376721321714218e-01, -1.568986478917036e+00, -2.094607828235096e+02, -7.288263932974533e+02, -2.217896488726593e+05, 1.150797571892462e+04, 3.540276728617448e+04, 2.438056713166281e+05
170, 1.512935000000000e-01, 1.621512000000000e-03, -1.521241391544708e-03, 2.853745416388836e-02, -1.606105925054528e-01, -1.625908319055354e+00, -2.308556786490405e+02, -7.720264778745995e+02, -1.917554699604860e+05, 1.024117970000023e+04, 3.261262398979691e+04, 2.122662937163146e+05
171, 1.618466000000000e-01, 1.473089000000000e-03, -1.594318396615088e-03, 2.991308744223675e-02, -1.841171108991788e-01, -1.680006768642049e+00, -2.524151210614623e+02, -8.142726083857299e+02, -1.627488779577602e+05, 8.812513682783760e+03, 2.951465425780385e+04, 1.814325504573832e+05
172, 1.719248000000000e-01, 1.327852000000000e-03, -1.665654837615036e-03, 3.124723554125474e-02, -2.079419850168904e-01, -1.731175342590428e+00, -2.739437131079515e+02, -8.552199904039544e+02, -1.350479479745954e+05, 7.245247860931104e+03, 2.616488672389676e+04, 1.516105496665219e+05
173, 1.814989000000000e-01, 1.186682000000000e-03, -1.734712076643247e-03, 3.253201396843505e-02, -2.318273710587273e-01, -1.779329763568336e+00, -2.952458715005217e+02, -8.945181090605165e+02, -1.089349443964178e+05, 5.544124652967241e+03, 2.260643037664167e+04, 1.230839552009507e+05
174, 1.905404000000000e-01, 1.050452000000000e-03, -1.800957640216961e-03, 3.375971255459028e-02, -2.555087876145432e-01, -1.824396219238373e+00, -3.161258345685239e+02, -9.318093502037251e+02, -8.469624052460348e+04, 3.751003975424532e+03, 1.892427975910190e+04, 9.620513768635619e+04
175, 1.990233000000000e-01, 9.200083000000000e-04, -1.863890089318034e-03, 3.492312074669263e-02, -2.787243478732724e-01, -1.866314980862327e+00, -3.363942833045255e+02, -9.667417809133356e+02, -6.260767397586604e+04, 1.901443496847705e+03, 1.518320170885694e+04, 7.129898101400697e+04
176, 2.069223000000000e-01, 7.961963000000000e-04, -1.923036476718133e-03, 3.601536450887410e-02, -3.012145832904658e-01, -1.905025817558165e+00, -3.558663875339666e+02, -9.989693937126626e+02, -4.294493090509307e+04, 3.731655089293599e+01, 1.148390330097064e+04, 4.873390746155896e+04
177, 2.142143000000000e-01, 6.798753000000000e-04, -1.977978814071863e-03, 3.703018696789930e-02, -3.227301215168767e-01, -1.940470741461834e+00, -3.743665776863531e+02, -1.028170016755003e+03, -2.596190909105833e+04, -1.790199096188952e+03, 7.930932764077272e+03, 2.891142234670106e+04
178, 2.208774000000000e-01, 5.718598000000000e-04, -2.028345631338747e-03, 3.796188118035419e-02, -3.430320002587521e-01, -1.972586865176968e+00, -3.917268730317952e+02, -1.054058838983635e+03, -1.188874080869949e+04, -3.523037309118539e+03, 4.667504482548591e+03, 1.253504636694040e+04
179, 2.268939000000000e-01, 4.727680000000000e-04, -2.073827690895497e-03, 3.880577096770641e-02, -3.619030753350763e-01, -2.001323477204659e+00, -4.077948737440198e+02, -1.076424166495665e+03, -9.126569717146035e+02, -5.124642241235102e+03, 1.826876610006053e+03, 5.575906428860378e+03
180, 2.322460000000000e-01, 3.832931000000000e-04, -2.114179199022960e-03, 3.955765368384904e-02, -3.791350565505984e-01, -2.026627912233762e+00, -4.224211645722286e+02, -1.095139969072388e+03, 6.834724264023847e+03, -6.534465344593762e+03, -4.120253227592052e+02, 1.339456196587064e+04
181, 2.369133000000000e-01, 3.046217000000000e-04, -2.149254519571570e-03, 4.021346928336170e-02, -3.945177678697203e-01, -2.048442708769400e+00, -4.354493971844129e+02, -1.110192638241705e+03, 1.128110108558942e+04, -7.671387572427033e+03, -1.810974225076630e+03, 1.929547451885571e+04
182, 2.408804000000000e-01, 2.375136000000000e-04, -2.178953862258064e-03, 4.077038113611079e-02, -4.078659194114320e-01, -2.066748652952372e+00, -4.467381204433237e+02, -1.121739867112673e+03, 1.247452320667601e+04, -8.417442572554974e+03, -2.272799451610338e+03, 2.138075544758696e+04
183, 2.441551000000000e-01, 1.805256000000000e-04, -2.203148467358680e-03, 4.122931108406152e-02, -4.190888031340883e-01, -2.081649414596682e+00, -4.562178445546186e+02, -1.130165606804099e+03, 1.067833808616874e+04, -8.883796397585927e+03, -1.864251752499007e+03, 1.991428743257680e+04
184, 2.467325000000000e-01, 1.335980000000000e-04, -2.221816953727113e-03, 4.158977348283376e-02, -4.280599230848190e-01, -2.093213812266785e+00, -4.637854809403113e+02, -1.135948280716877e+03, 6.608473557371964e+03, -8.854283313262711e+03, -1.017853510084133e+02, 1.546409683981187e+04
185, 2.485345000000000e-01, 1.044067000000000e-04, -2.235322913493292e-03, 4.184125015268855e-02, -4.343828251523822e-01, -2.101219443844123e+00, -4.691203471207035e+02, -1.139506807395397e+03, -4.749885203097371e+02, -9.628951732547317e+03, 1.582848417741769e+03, 9.685901039407199e+03
186, 2.495362000000000e-01, 9.519618000000000e-05, -2.243797371303746e-03, 4.198079827756817e-02, -4.378857077023683e-01, -2.105664291092043e+00, -4.720838829175565e+02, -1.141346774019124e+03, -7.753561221621174e+03, -1.545375842098782e+03, -3.370420232875606e+03, 9.164087291772412e+03
187, 2.502041000000000e-01, 4.696250000000000e-05, -2.243598150026159e-03, 4.207422406583688e-02, -4.404105477269122e-01, -2.108477290444671e+00, -4.741322928227165e+02, -1.142425191888824e+03, -1.507559025852416e+04, -2.414675577273211e+03, 5.585516108286639e+02, 1.271010150131591e+04
188, -1.990233000000000e-01, 0.000000000000000e+00, 0.000000000000000e+00, 0.000000000000000e+00, 0.000000000000000e+00, 0.000000000000000e+00, 0.000000000000000e+00, 0.000000000000000e+00, 8.899818795775264e+04, 3.972340197639203e+04, 1.385458568865454e+06, 2.771355226004843e+06
189, -1.905404000000000e-01, 0.000000000000000e+00, 9.777980362179990e-07, 4.601359784210955e-05, 1.185443748175481e-03, -3.432151214916669e-03, 1.054913453083943e+00, -1.799895866452978e+00, 6.617030955208268e+04, -7.850331462930772e+03, 5.028251751872168e+05, 1.008370806055240e+06
190, -1.814989000000000e-01, 0.000000000000000e+00, 1.159419368599296e-06, 1.933453365727726e-04, 2.636898162681551e-03, -1.425486686937978e-02, 2.220011346504760e+00, -5.603447295495140e+00, 6.448631423658390e+04, 9.521192323511204e+03, 5.591067200008520e+05, 1.119563514065800e+06
191, -1.719248000000000e-01, 0.000000000000000e+00, -4.203912060489308e-07, 4.286508316779680e-04, 4.241324350531855e-03, -3.145298794917431e-02, 3.227727878990864e+00, -1.075446942545381e+01, 5.849815250775891e+04, 2.363379546291090e+04, 4.383498236260331e+05, 8.773926115964551e+05
192, -1.618466000000000e-01, 0.000000000000000e+00, -4.282785903904015e-06, 7.492853750749231e-04, 5.948122655494891e-03, -5.481284819546397e-02, 3.955110996428409e+00, -1.698254595179683e+01, 5.412498022593997e+04, 3.248142973547050e+04, 3.662812141079170e+05, 7.328820877271544e+05
193, -1.512935000000000e-01, 0.000000000000000e+00, -1.081548537300767e-05, 1.153674440297543e-03, 7.755550318118053e-03, -8.420455303263760e-02, 4.355002220923851e+00, -2.417206807558939e+01, 5.275920478087127e+04, 3.757667678230282e+04, 3.105749103785745e+05, 6.213353434201741e+05
194, -1.402968000000000e-01, 0.000000000000000e+00, -2.034125699553425e-05, 1.639642441863395e-03, 9.643136385163231e-03, -1.194492372187384e-01, 4.380140917371495e+00, -3.229675586422329e+01, 5.289292009676275e+04, 4.030558492259794e+04, 2.639654299267167e+05, 5.280808970151944e+05
195, -1.288884000000000e-01, 0.000000000000000e+00, -3.312619808648981e-05, 2.204862984249193e-03, 1.156521556966412e-02, -1.603465969823582e-01, 3.975328201807496e+00, -4.143680265033111e+01, 5.374935842199173e+04, 4.165890045230504e+04, 2.250465728442142e+05, 4.502555040969756e+05
196, -1.171021000000000e-01, 0.000000000000000e+00, -4.938847572920075e-05, 2.846889348754517e-03, 1.345474758896763e-02, -2.066768420486234e-01, 3.078138693035139e+00, -5.180090282922837e+01, 5.505898978353107e+04, 4.226428627960018e+04, 1.915194036536545e+05, 3.832524394458035e+05
197, -1.049722000000000e-01, 0.000000000000000e+00, -6.931154977826577e-05, 3.563229581487390e-03, 1.522440258326625e-02, -2.582052732405948e-01, 1.619596677367226e+00, -6.374606749488456e+01, 5.675841328134865e+04, 4.236260415389088e+04, 1.617189938637701e+05, 3.237581987003181e+05
198, -9.253454000000000e-02, 0.000000000000000e+00, -9.304733092689750e-05, 4.351351862634853e-03, 1.677338448785712e-02, -3.146565630415371e-01, -4.612640319021359e-01, -7.774170981961724e+01, 5.891415759235031e+04, 4.060726062678398e+04, 1.351463802956808e+05, 2.709120132157431e+05
199, -7.982535000000000e-02, 0.000000000000000e+00, -1.207152505787537e-04, 5.208875988608043e-03, 1.799246307138489e-02, -3.756538440934148e-01, -3.209946656505984e+00, -9.424050938277051e+01, 6.129790555490858e+04, 3.444758203928233e+04, 1.137565727832727e+05, 2.290920585233759e+05
200, -6.688208000000000e-02, 0.000000000000000e+00, -1.524177560010363e-04, 6.133663275424698e-03, 1.874277828824056e-02, -4.406711503164517e-01, -6.702216307282510e+00, -1.135866126456312e+02, 6.259728794549267e+04, 2.408677452846410e+04, 1.013602830785320e+05, 2.063460384564814e+05
201, -5.374259000000000e-02, 0.000000000000000e+00, -1.883069274497204e-04, 7.123806535509684e-03, 1.884039015872745e-02, -5.091460173721175e-01, -1.106111977186850e+01, -1.361930371213405e+02, 6.297136902751210e+04, 1.810755279728441e+04, 9.778474668116138e+04, 2.006494174941339e+05
202, -4.044550000000000e-02, 0.000000000000000e+00, -2.285742580642390e-04, 8.177112504631335e-03, 1.808587451573650e-02, -5.805813386922067e-01, -1.639070941390604e+01, -1.625625365873497e+02, 6.280329456496650e+04, 1.865196378369910e+04, 9.799445554855884e+04, 2.009004561537648e+05
203, -2.702974000000000e-02, 0.000000000000000e+00, -2.733555421730806e-04, 9.290815280735113e-03, 1.629759828089211e-02, -6.544523107967992e-01, -2.276215858974411e+01, -1.929302080069903e+02, 6.236571562578520e+04, 2.061835487041738e+04, 9.834702086172406e+04, 2.010755782772845e+05
204, -1.353473000000000e-02, 0.000000000000000e+00, -3.227049931939909e-04, 1.046161445941437e-02, 1.330606445106267e-02, -7.299946678528553e-01, -3.025699727429207e+01, -2.269770257654525e+02, 6.197190838797350e+04, 2.143042394603813e+04, 9.842020706202905e+04, 2.009720393320582e+05
205, -9.637083000000000e-13, 0.000000000000000e+00, -3.766311317509918e-04, 1.168578873515998e-02, 8.941997980046135e-03, -8.061691308418220e-01, -3.896119814362686e+01, -2.638183418552318e+02, 6.157462768897416e+04, 2.158433199556633e+04, 9.862340020375179e+04, 2.012598420466531e+05
206, 1.353473000000000e-02, 0.000000000000000e+00, -4.351078118020159e-04, 1.295917592620744e-02, 3.036646329688475e-03, -8.818794724630195e-01, -4.896356699061339e+01, -3.022298455323748e+02, 6.102915522619669e+04, 2.182221731022059e+04, 9.897713147168430e+04, 2.017995891923458e+05
207, 2.702974000000000e-02, 0.000000000000000e+00, -4.980621472759929e-04, 1.427713907508813e-02, -4.577555500673181e-03, -9.564114192588813e-01, -6.037267989083136e+01, -3.412756315843914e+02, 6.026729946178665e+04, 2.222246595062292e+04, 9.923881605965699e+04, 2.020910186242375e+05
208, 4.044550000000000e-02, 0.000000000000000e+00, -5.653638369006045e-04, 1.563454843862672e-02, -1.399931115377490e-02, -1.029773609714857e+00, -7.324470746276543e+01, -3.808628438702490e+02, 5.931467186639503e+04, 2.275576049360074e+04, 9.909722907405565e+04, 2.015380788868130e+05
209, 5.374259000000000e-02, 0.000000000000000e+00, -6.368181693990438e-04, 1.702575035224760e-02, -2.518943528230411e-02, -1.102272190249446e+00, -8.749873847941562e+01, -4.214215473225757e+02, 5.822230697904997e+04, 2.332380843033600e+04, 9.823084867423293e+04, 1.995372239107149e+05
210, 6.688208000000000e-02, 0.000000000000000e+00, -7.121618133011490e-04, 1.844460537182360e-02, -3.807219795386618e-02, -1.173797526460763e+00, -1.030029983508306e+02, -4.631074411297630e+02, 5.697034701035454e+04, 2.357792323803055e+04, 9.649724265846580e+04, 1.958620058309875e+05
211, 7.982535000000000e-02, 0.000000000000000e+00, -7.910601747113772e-04, 1.988450095502956e-02, -5.261099781300371e-02, -1.243977667385249e+00, -1.196650082328774e+02, -5.057562363939216e+02, 5.553072691497371e+04, 2.342108132708641e+04, 9.397425305884470e+04, 1.906716294881093e+05
212, 9.253454000000000e-02, 0.000000000000000e+00, -8.731119859778958e-04, 2.133843653544138e-02, -6.875268605677676e-02, -1.312479276632810e+00, -1.373955480306716e+02, -5.491322222315463e+02, 5.389056491393063e+04, 2.297822666800204e+04, 9.072553008225131e+04, 1.840653685261099e+05
213, 1.049722000000000e-01, 0.000000000000000e+00, -9.578477699082779e-04, 2.279901597523616e-02, -8.639919378230076e-02, -1.379063249209727e+00, -1.560770945736352e+02, -5.930214125625760e+02, 5.204078421687609e+04, 2.230496502719593e+04, 8.676515559618523e+04, 1.760596144645395e+05
214, 1.171021000000000e-01, 0.000000000000000e+00, -1.044735955391202e-03, 2.425858072998910e-02, -1.054177922747960e-01, -1.443531540722862e+00, -1.755691459503948e+02, -6.372036452350023e+02, 4.998352532397209e+04, 2.135870528220604e+04, 8.208786727039129e+04, 1.666524891336130e+05
215, 1.288884000000000e-01, 0.000000000000000e+00, -1.133180906266334e-03, 2.570916539713734e-02, -1.256484370395687e-01, -1.505688205241389e+00, -1.957157815088609e+02, -6.814163739457703e+02, 4.772181758517700e+04, 2.012819807606017e+04, 7.675388061304469e+04, 1.559680755611865e+05
216, 1.402968000000000e-01, 0.000000000000000e+00, -1.222537489275855e-03, 2.714269933754674e-02, -1.469075749335781e-01, -1.565352060553884e+00, -2.163509230020043e+02, -7.253610919659984e+02, 4.526667096907894e+04, 1.861742699895288e+04, 7.082145192418832e+04, 1.441280486747107e+05
217, 1.512935000000000e-01, 0.000000000000000e+00, -1.312111343335941e-03, 2.855094904605991e-02, -1.689872027868033e-01, -1.622363660750335e+00, -2.372976075866201e+02, -7.687142615594125e+02, 4.261973795652459e+04, 1.684695414822349e+04, 6.440322300906196e+04, 1.313595711056080e+05
218, 1.618466000000000e-01, 0.000000000000000e+00, -1.401179719509730e-03, 2.992576984113343e-02, -1.916603570190163e-01, -1.676593948680837e+00, -2.583725119963299e+02, -8.111411326633420e+02, 3.980329690292390e+04, 1.486208101589103e+04, 5.758143228874006e+04, 1.178327188331603e+05
219, 1.719248000000000e-01, 0.000000000000000e+00, -1.488992010680669e-03, 3.125901750546363e-02, -2.146828396818850e-01, -1.727932522707603e+00, -2.793866393297927e+02, -8.522927150444071e+02, 3.683233497461090e+04, 1.269907336703331e+04, 5.047362438221044e+04, 1.037919136971934e+05
220, 1.814989000000000e-01, 0.000000000000000e+00, -1.574794713013035e-03, 3.254282514566376e-02, -2.378012124756506e-01, -1.776290192748143e+00, -3.001516628266897e+02, -8.918138828889358e+02, 3.372865430220444e+04, 1.037861960004979e+04, 4.318730008930866e+04, 8.947511205138457e+04
221, 1.905404000000000e-01, -4.336809000000000e-19, -1.657832842529195e-03, 3.376950215702051e-02, -2.607544838733054e-01, -1.821587342357648e+00, -3.204799761317661e+02, -9.293420420106543e+02, 3.050994215191839e+04, 7.957467346931942e+03, 3.587724953611533e+04, 7.521517304996579e+04
222, 1.990233000000000e-01, 0.000000000000000e+00, -1.737380262652249e-03, 3.493185894883610e-02, -2.832833971225568e-01, -1.863757789484572e+00, -3.401912560427377e+02, -9.645201197502172e+02, 2.720093565011450e+04, 5.484847044676231e+03, 2.867620660011634e+04, 6.132607768485988e+04
223, 2.069223000000000e-01, 0.000000000000000e+00, -1.812737357833660e-03, 3.602304348675333e-02, -3.051306089213797e-01, -1.902734383879074e+00, -3.591106415383717e+02, -9.969969188428365e+02, 2.381733939296250e+04, 3.018999634736052e+03, 2.175338138529927e+04, 4.822249831225837e+04
224, 2.142143000000000e-01, 0.000000000000000e+00, -1.883258737588808e-03, 3.703682149531207e-02, -3.260487780303991e-01, -1.938451907427952e+00, -3.770736146077332e+02, -1.026445110327710e+03, 2.037650221798554e+04, 6.262339983135626e+02, 1.527628441353674e+04, 3.638038697817888e+04
225, 2.208774000000000e-01, 0.000000000000000e+00, -1.948356651528190e-03, 3.796750801747244e-02, -3.458010311815876e-01, -1.970840304870623e+00, -3.939240284615731e+02, -1.052575019498712e+03, 1.688683549941530e+04, -1.619279420689947e+03, 9.446141397499501e+03, 2.644607038186122e+04
226, 2.268939000000000e-01, 0.000000000000000e+00, -2.007541554585082e-03, 3.881044610470198e-02, -3.641719411901696e-01, -1.999842448345862e+00, -4.095211244740513e+02, -1.075170871582757e+03, 1.335829356193178e+04, -3.672800215195965e+03, 4.443593550746307e+03, 1.921042034475707e+04
227, 2.322460000000000e-01, 0.000000000000000e+00, -2.060388968916129e-03, 3.956145157693903e-02, -3.809559023910933e-01, -2.025399357767077e+00, -4.237272800904730e+02, -1.094102662437797e+03, 9.788710574520828e+03, -5.467601597964052e+03, 4.821387855301415e+02, 1.528675545491456e+04
228, 2.369133000000000e-01, 0.000000000000000e+00, -2.106520062120578e-03, 4.021648575880149e-02, -3.959481936303864e-01, -2.047446015582243e+00, -4.363983243529007e+02, -1.109351692698612e+03, 6.146529686418272e+03, -6.909936297245000e+03, -2.183434655098431e+03, 1.376738361326855e+04
229, 2.408804000000000e-01, 0.000000000000000e+00, -2.145678722186789e-03, 4.077272675492461e-02, -4.089670462290245e-01, -2.065957302996010e+00, -4.474004086703093e+02, -1.121071777718117e+03, 2.469664396496175e+03, -7.882477673578042e+03, -3.454368688311482e+03, 1.244578232085664e+04
230, 2.441551000000000e-01, 0.000000000000000e+00, -2.177906796882810e-03, 4.123108682639385e-02, -4.199147612448149e-01, -2.081038620768067e+00, -4.566608372068100e+02, -1.129649182516991e+03, -1.214624469624380e+03, -8.527953789166948e+03, -3.410915242421652e+03, 1.000110778364169e+04
231, 2.467325000000000e-01, -5.421011000000000e-20, -2.203176259356913e-03, 4.159108194892377e-02, -4.286637727030491e-01, -2.092756312038255e+00, -4.640726272729582e+02, -1.135560749582717e+03, -4.842361644143390e+03, -8.593870758964989e+03, -1.719668069318936e+03, 5.089484621563369e+03
232, 2.485345000000000e-01, 0.000000000000000e+00, -2.220779135907846e-03, 4.184226928153437e-02, -4.348506413356352e-01, -2.100859185090489e+00, -4.693222373242738e+02, -1.139201172937841e+03, -9.090335486005628e+03, -9.345003156160752e+03, 2.583421381491225e+02, 5.760366859810994e+02
233, 2.495362000000000e-01, 0.000000000000000e+00, -2.230545008367966e-03, 4.198172472542731e-02, -4.383108685647015e-01, -2.105334645774376e+00, -4.722602165895256e+02, -1.141066284841378e+03, -1.166773621026934e+04, -9.088666929718212e+02, -4.490866813602592e+03, 1.401516365371100e+04
234, 2.502041000000000e-01, 2.710505000000000e-20, -2.237062540155548e-03, 4.207468084301026e-02, -4.406198997249633e-01, -2.108314613941721e+00, -4.742177644602731e+02, -1.142286734875065e+03, -1.779842304883300e+04, -3.674326062414084e+03, -4.693762968097476e+03, 1.695923815755003e+04
235, -1.990233000000000e-01, -2.947129000000000e-03, 0.000000000000000e+00, 0.000000000000000e+00, 0.000000000000000e+00, 0.000000000000000e+00, 0.000000000000000e+00, 0.000000000000000e+00, 2.666821841433116e+06, 9.329846998861305e+05, 1.449613015692882e+06, 3.378121195942008e+06
236, -1.905404000000000e-01, -3.108244000000000e-03, 2.847395965439763e-05, 4.805640688403472e-05, -8.134507560675526e-04, -3.439463702483972e-03, 4.774730292458234e-01, -1.661166065771216e+00, 2.316948423091562e+06, -9.834920199475906e+03, 4.845130289242684e+05, 2.520502375996915e+06
237, -1.814989000000000e-01, -3.252287000000000e-03, 6.039123977522257e-05, 1.960369708930380e-04, -1.673681318364399e-03, -1.424142167427165e-02, 1.009956522811385e+00, -5.366818079068031e+00, 2.179934877853903e+06, -7.016234546996380e+04, 5.177871816128104e+05, 2.476964225857920e+06
238, -1.719248000000000e-01, -3.378620000000000e-03, 8.894274645754479e-05, 4.316143963113484e-04, -2.264658053438386e-03, -3.144043376229580e-02, 1.486215317221175e+00, -1.043588386273574e+01, 1.898887245246574e+06, 7.185864454072725e+03, 4.316970994631302e+05, 2.079419067151154e+06
239, -1.618466000000000e-01, -3.486796000000000e-03, 1.129062674816507e-04, 7.528107938541756e-04, -2.573382220369281e-03, -5.481519666696848e-02, 1.791187769171254e+00, -1.656907843814194e+01, 1.649773822501806e+06, 1.784631793302481e+04, 3.791324559319817e+05, 1.799486887068687e+06
240, -1.512935000000000e-01, -3.576470000000000e-03, 1.323209437122777e-04, 1.157936827906267e-03, -2.632661041210101e-03, -8.421459876164498e-02, 1.824926483070402e+00, -2.364326719719456e+01, 1.462908648519821e+06, 2.405391864928865e+04, 3.345270675554823e+05, 1.586800670966547e+06
241, -1.402968000000000e-01, -3.647516000000000e-03, 1.467917233217466e-04, 1.644727460179064e-03, -2.459275101118212e-03, -1.194536702796435e-01, 1.500101747979514e+00, -3.163751113410333e+01, 1.310536558877185e+06, 3.051827554751340e+04, 2.964943172781702e+05, 1.410702777473424e+06
242, -1.288884000000000e-01, -3.699915000000000e-03, 1.560027901329835e-04, 2.210833003504202e-03, -2.092294279340805e-03, -1.603297823680006e-01, 7.265118766454859e-01, -4.063815124992904e+01, 1.185324566236867e+06, 3.407985120640480e+04, 2.633872524946053e+05, 1.266039404202017e+06
243, -1.171021000000000e-01, -3.733874000000000e-03, 1.597353149462280e-04, 2.853779201429175e-03, -1.592032836194405e-03, -2.066199685939113e-01, -5.883882399630574e-01, -5.085870973063177e+01, 1.083281585458201e+06, 3.651779230415214e+04, 2.341969674876455e+05, 1.146781285590190e+06
244, -1.049722000000000e-01, -3.749705000000000e-03, 1.578208644505529e-04, 3.571054609556043e-03, -1.034823418098225e-03, -2.580843530417245e-01, -2.532738442353375e+00, -6.265512130812053e+01, 1.000749403975305e+06, 3.795240671362038e+04, 2.077937380448738e+05, 1.048661531772175e+06
245, -9.253454000000000e-02, -3.747926000000000e-03, 1.501514522117697e-04, 4.360121468611385e-03, -5.084512724470407e-04, -3.144377342726358e-01, -5.176105659937816e+00, -7.648498581747131e+01, 9.352017721046557e+05, 3.760838136920249e+04, 1.841917630348582e+05, 9.702475546846411e+05
246, -7.982535000000000e-02, -3.729145000000000e-03, 1.366622616237052e-04, 5.218602653997843e-03, -1.121844180316522e-04, -3.752958151042677e-01, -8.567754997253296e+00, -9.279433260995897e+01, 8.837527654600407e+05, 3.396439960247877e+04, 1.654589427417390e+05, 9.119467712973830e+05
247, -6.688208000000000e-02, -3.694141000000000e-03, 1.172989823329515e-04, 6.144349651561873e-03, 2.176495470206097e-05, -4.401417150090330e-01, -1.277333307168253e+01, -1.119504454411991e+02, 8.420602652439120e+05, 2.760303506693774e+04, 1.549331557214687e+05, 8.714113326981697e+05
248, -5.374259000000000e-02, -3.643765000000000e-03, 9.193924304130010e-05, 7.135409168442823e-03, -2.831518405301964e-04, -5.084220161250689e-01, -1.788242748133335e+01, -1.343736482354020e+02, 8.062265403008549e+05, 2.424842703611670e+04, 1.524254719063329e+05, 8.392996291960059e+05
249, -4.044550000000000e-02, -3.578988000000000e-03, 6.039860456560293e-05, 8.189565036179808e-03, -1.218760761036136e-03, -5.796320952929306e-01, -2.394983105074684e+01, -1.605404507942181e+02, 7.733330158986048e+05, 2.539494247233486e+04, 1.534754755850590e+05, 8.084740243847297e+05
250, -2.702974000000000e-02, -3.500831000000000e-03, 2.251552561115050e-05, 9.304058821352950e-03, -2.958373636824080e-03, -6.532337843840901e-01, -3.097888174861514e+01, -1.906729140848746e+02, 7.418566351442772e+05, 2.756527711015587e+04, 1.545238491047745e+05, 7.782818409360774e+05
251, -1.353473000000000e-02, -3.410385000000000e-03, -2.179675302922375e-05, 1.047558923249953e-02, -5.664948191464209e-03, -7.284660816376436e-01, -3.897017783959454e+01, -2.244593337719668e+02, 7.113071398171876e+05, 2.884239983423998e+04, 1.549525748010484e+05, 7.495327364898016e+05
252, -9.637083000000000e-13, -3.308766000000000e-03, -7.256475858379545e-05, 1.170042157676475e-02, -9.520801300543114e-03, -8.043084609172716e-01, -4.795842599967834e+01, -2.610284539987171e+02, 6.812576570538353e+05, 2.953746811016582e+04, 1.551385149802517e+05, 7.218109447756271e+05
253, 1.353473000000000e-02, -3.197115000000000e-03, -1.297631029672978e-04, 1.297437950640399e-02, -1.474625748837310e-02, -8.796965359614886e-01, -5.804501556573345e+01, -2.991932295998167e+02, 6.511746128305192e+05, 3.019566988235368e+04, 1.551305371232834e+05, 6.941734522276509e+05
254, 2.702974000000000e-02, -3.076578000000000e-03, -1.933078833937540e-04, 1.429281504957581e-02, -2.158282908264131e-02, -9.539461828291146e-01, -6.940149498419794e+01, -3.380519282816958e+02, 6.205822268222932e+05, 3.087943449024481e+04, 1.546768943821825e+05, 6.659197773809413e+05
255, 4.044550000000000e-02, -2.948292000000000e-03, -2.630467127637412e-04, 1.565058862393488e-02, -3.019190334512012e-02, -1.027050771637050e+00, -8.215880355393597e+01, -3.774943266917501e+02, 5.891886155456719e+05, 3.154271738079705e+04, 1.534500547412852e+05, 6.365191473479206e+05
256, 5.374259000000000e-02, -2.813383000000000e-03, -3.387483977196249e-04, 1.704203806195850e-02, -4.056694880377554e-02, -1.099289972786323e+00, -9.628661651135903e+01, -4.179150487194121e+02, 5.568958110674472e+05, 3.208710780829706e+04, 1.511390713742127e+05, 6.056370617787422e+05
257, 6.688208000000000e-02, -2.672945000000000e-03, -4.200973846980096e-04, 1.846101768944449e-02, -5.262539908690433e-02, -1.170583587934558e+00, -1.116551734832071e+02, -4.594876401537564e+02, 5.237165182056542e+05, 3.225621962723189e+04, 1.476097198303826e+05, 5.733129534838789e+05
258, 7.982535000000000e-02, -2.528055000000000e-03, -5.066874017167032e-04, 1.990090988825376e-02, -6.631145118024528e-02, -1.240578774294277e+00, -1.281465950717033e+02, -5.020659558021582e+02, 4.897299653391889e+05, 3.197670190086403e+04, 1.429417280333933e+05, 5.396919497649811e+05
259, 9.253454000000000e-02, -2.379750000000000e-03, -5.980275335941569e-04, 2.135471041133466e-02, -8.157298994882567e-02, -1.308941542978499e+00, -1.456576182580645e+02, -5.454142781604463e+02, 4.550463077466661e+05, 3.133641323142206e+04, 1.372152755263222e+05, 5.048189794977773e+05
260, 1.049722000000000e-01, -2.229046000000000e-03, -6.935396267002307e-04, 2.281502201880218e-02, -9.832512407721594e-02, -1.375430921554150e+00, -1.640702530974636e+02, -5.893146107552144e+02, 4.197947691657945e+05, 3.037673977047140e+04, 1.304699147131612e+05, 4.687600625044490e+05
261, 1.171021000000000e-01, -2.076921000000000e-03, -7.925666531379863e-04, 2.427418780551745e-02, -1.164464102323045e-01, -1.439850204533459e+00, -1.832457467757996e+02, -6.335451250594351e+02, 3.841575552622216e+05, 2.906831079478277e+04, 1.227320392953965e+05, 4.316723125414503e+05
262, 1.288884000000000e-01, -1.924338000000000e-03, -8.943689002710725e-04, 2.572424669603875e-02, -1.357845901692118e-01, -1.502004994146768e+00, -2.030289130677453e+02, -6.778424495901027e+02, 3.483599948309028e+05, 2.740947112692119e+04, 1.141001538587012e+05, 3.938078454121720e+05
263, 1.402968000000000e-01, -1.772228000000000e-03, -9.981408888442205e-04, 2.715713510029797e-02, -1.561630558713321e-01, -1.561713914933389e+00, -2.232552730315821e+02, -7.219062662676340e+02, 3.126687254430919e+05, 2.541192386177270e+04, 1.046803552928118e+05, 3.554551690321111e+05
264, 1.512935000000000e-01, -1.621512000000000e-03, -1.103010949428248e-03, 2.856462939873573e-02, -1.773809968341105e-01, -1.618815691155706e+00, -2.437516083835754e+02, -7.654100761027721e+02, 2.773582469663279e+05, 2.310761446963011e+04, 9.463594750714145e+04, 3.169656674898223e+05
265, 1.618466000000000e-01, -1.473089000000000e-03, -1.208065073379735e-03, 2.993859743838375e-02, -1.992180809378405e-01, -1.673178299131957e+00, -2.643399975958783e+02, -8.080154487161656e+02, 2.427306844123442e+05, 2.054519247764850e+04, 8.410800393924495e+04, 2.786808535454830e+05
266, 1.719248000000000e-01, -1.327852000000000e-03, -1.312348165755570e-03, 3.127091013437689e-02, -2.214356748685777e-01, -1.724687367003110e+00, -2.848378782592653e+02, -8.493692226971054e+02, 2.090935685311747e+05, 1.777394485804070e+04, 7.327609539508632e+04, 2.409994668621256e+05
267, 1.814989000000000e-01, -1.186682000000000e-03, -1.414891909595282e-03, 3.255371802616187e-02, -2.437847809332938e-01, -1.773248743940252e+00, -3.050641937159627e+02, -8.891116690126244e+02, 1.767714199124402e+05, 1.483115199279927e+04, 6.231497948338141e+04, 2.043459738921765e+05
268, 1.905404000000000e-01, -1.050452000000000e-03, -1.514718839515308e-03, 3.377934979244174e-02, -2.660079181377011e-01, -1.818776982256639e+00, -3.248394935783562e+02, -9.268752297229332e+02, 1.460867325944176e+05, 1.178775326107877e+04, 5.144633430603220e+04, 1.691836785984058e+05
269, 1.990233000000000e-01, -9.200083000000000e-04, -1.610878121360777e-03, 3.494063641709295e-02, -2.878484710652087e-01, -1.861199429629740e+00, -3.439924464438477e+02, -9.622977073822713e+02, 1.173643312316084e+05, 8.706688454165160e+03, 4.087262580140516e+04, 1.359734146572675e+05
270, 2.069223000000000e-01, -7.961963000000000e-04, -1.702443446405419e-03, 3.603074738395227e-02, -3.090512203261579e-01, -1.900442013487520e+00, -3.623581489337582e+02, -9.950227295086579e+02, 9.091213969276915e+04, 5.661371289373329e+03, 3.082875702996428e+04, 1.052109431257971e+05
271, 2.142143000000000e-01, -6.798753000000000e-04, -1.788541974798186e-03, 3.704347045933565e-02, -3.293708412732541e-01, -1.936432298292445e+00, -3.797831166861599e+02, -1.024717822373314e+03, 6.701894173909986e+04, 2.732699153364528e+03, 2.154512938901250e+04, 7.739180439393548e+04
272, 2.208774000000000e-01, -5.718598000000000e-04, -1.868369608812453e-03, 3.797314206298776e-02, -3.485725277967060e-01, -1.969093080180869e+00, -3.961230169425591e+02, -1.051088450698335e+03, 4.593314945981845e+04, 9.353718748301617e+00, 1.327685086193322e+04, 5.304803568943529e+04
273, 2.268939000000000e-01, -4.727680000000000e-04, -1.941256416528274e-03, 3.881512384877266e-02, -3.664425427364413e-01, -1.998360839367773e+00, -4.112487100643939e+02, -1.073914748737388e+03, 2.786209311932935e+04, -2.456660996248593e+03, 6.251950525756176e+03, 3.279595085718489e+04
274, 2.322460000000000e-01, -3.832931000000000e-04, -2.006599148419309e-03, 3.956524948178718e-02, -3.827779310732942e-01, -2.024170302557541e+00, -4.250343413751603e+02, -1.093062704688800e+03, 1.293499702451729e+04, -4.594110522923696e+03, 7.137155498981128e+02, 1.758713083349351e+04
275, 2.369133000000000e-01, -3.046217000000000e-04, -2.063785687281251e-03, 4.021950106591408e-02, -3.973793949526432e-01, -2.046448905432170e+00, -4.373478978699494e+02, -1.108508465945737e+03, 1.162386429718748e+03, -6.299860536312601e+03, -3.071582892905288e+03, 9.665589255394507e+03
276, 2.408804000000000e-01, -2.375136000000000e-04, -2.112403517069250e-03, 4.077507092699695e-02, -4.100686600666819e-01, -2.065165628731516e+00, -4.480631205815018e+02, -1.120401901617614e+03, -7.427394569389398e+03, -7.452588555985051e+03, -5.000712125695542e+03, 1.000145598366929e+04
277, 2.441551000000000e-01, -1.805256000000000e-04, -2.152665025794047e-03, 4.123286133809494e-02, -4.207410077084606e-01, -2.080427599213577e+00, -4.571040900401420e+02, -1.129131509565943e+03, -1.304414577079313e+04, -8.236921074464080e+03, -5.168787349428776e+03, 1.140065173292543e+04
278, 2.467325000000000e-01, -1.335980000000000e-04, -2.184535460853302e-03, 4.159238955563192e-02, -4.292677824834159e-01, -2.092298666916672e+00, -4.643599291693180e+02, -1.135172430262211e+03, -1.626721434073882e+04, -8.371255080023377e+03, -3.444239179101723e+03, 1.047842100405950e+04
279, 2.485345000000000e-01, -1.044067000000000e-04, -2.206235343970026e-03, 4.184328787744099e-02, -4.353185239219783e-01, -2.100498842144911e+00, -4.695241687112222e+02, -1.138895086061714e+03, -1.778811613336883e+04, -8.942526013672350e+03, -9.160436588271696e+02, 9.033327654036568e+03
280, 2.495362000000000e-01, -9.519618000000000e-05, -2.217292777977880e-03, 4.198265089170825e-02, -4.387360334571007e-01, -2.105004960590684e+00, -4.724365057902111e+02, -1.140785589256680e+03, -1.494250647725115e+04, -3.734666711146673e+02, -4.657997429989144e+03, 1.729290840500611e+04
281, 2.502041000000000e-01, -4.696250000000000e-05, -2.230524993960719e-03, 4.207513780791514e-02, -4.408296771264690e-01, -2.108151922353224e+00, -4.743042798748461e+02, -1.142148205693745e+03, -1.585736071728760e+04, -3.658334658660732e+03, -9.793518217969691e+03, 2.307527319712325e+04
282, -1.990233000000000e-01, -5.894257000000000e-03, 0.000000000000000e+00, 0.000000000000000e+00, 0.000000000000000e+00, 0.000000000000000e+00, 0.000000000000000e+00, 0.000000000000000e+00, 5.381639458812482e+06, 1.869416888912994e+06, 1.623144120737208e+06, 4.782686977761186e+06
283, -1.905404000000000e-01, -6.216489000000000e-03, 5.751762152842358e-05, 5.370859362609187e-05, -2.901985116535582e-03, -3.702490737614391e-03, -1.332278099194735e-01, -1.599304495429725e+00, 4.584065753790480e+06, -1.241243411490156e+05, 3.472080683840862e+05, 4.759124682238364e+06
284, -1.814989000000000e-01, -6.504574000000000e-03, 1.214443704128052e-04, 2.024897677162803e-04, -6.089781921066495e-03, -1.450593522388793e-02, -2.429568381344507e-01, -5.217823294411976e+00, 4.286793991984849e+06, -9.947344558533105e+04, 3.198217258130796e+05, 4.432661252464111e+06
285, -1.719248000000000e-01, -6.757240000000000e-03, 1.794097216855115e-04, 4.377243001761297e-04, -8.838242930496018e-03, -3.166313139327791e-02, -2.850955946599560e-01, -1.018276939776649e+01, 3.707227094694809e+06, 7.774405839734667e+03, 3.237409717527948e+05, 3.755686763328754e+06
286, -1.618466000000000e-01, -6.973592000000000e-03, 2.309408184177045e-04, 7.591888812582017e-04, -1.115123514291809e-02, -5.502811250033540e-02, -3.941284125428703e-01, -1.620732159654266e+01, 3.231930840017170e+06, 3.826680583971378e+03, 3.081091526012083e+05, 3.286393382389950e+06
287, -1.512935000000000e-01, -7.152941000000000e-03, 2.761390454162757e-04, 1.164792160058340e-03, -1.306974330927590e-02, -8.441494293802340e-02, -7.188962611112348e-01, -2.316065890874212e+01, 2.866313361087138e+06, 1.557678565007888e+04, 2.938582258257857e+05, 2.910688861777659e+06
288, -1.402968000000000e-01, -7.295031000000000e-03, 3.144354640213905e-04, 1.652165277080192e-03, -1.460328656015486e-02, -1.196300827611164e-01, -1.386642637283052e+00, -3.102454562033476e+01, 2.562603568895254e+06, 2.238994963294423e+04, 2.778964058736849e+05, 2.600305920670830e+06
289, -1.288884000000000e-01, -7.399830000000000e-03, 3.455135216172398e-04, 2.218949926668322e-03, -1.578790072867577e-02, -1.604684191919978e-01, -2.524311849168623e+00, -3.988958656178965e+01, 2.313534977676379e+06, 2.763610869990454e+04, 2.618597652234717e+05, 2.345125963729772e+06
290, -1.171021000000000e-01, -7.467748000000000e-03, 3.691308522854698e-04, 2.862635753798563e-03, -1.667571319551475e-02, -2.067022712357430e-01, -4.254391820357299e+00, -4.997169294241412e+01, 2.109117407500723e+06, 3.139881219676519e+04, 2.460485128663656e+05, 2.135198830087459e+06
291, -1.049722000000000e-01, -7.499411000000000e-03, 3.851329171881299e-04, 3.580691803762933e-03, -1.733203704701854e-02, -2.580861116704508e-01, -6.684826365896496e+00, -6.162446627751786e+01, 1.942992440613751e+06, 3.407904587993678e+04, 2.306372535783460e+05, 1.963854505697106e+06
292, -9.253454000000000e-02, -7.495851000000000e-03, 3.934520901647448e-04, 4.370569450397844e-03, -1.783106963330326e-02, -3.143264073333889e-01, -9.893856183880969e+00, -7.529633792738539e+01, 1.810117780768083e+06, 3.525459676758938e+04, 2.163939747721021e+05, 1.826867464046325e+06
293, -7.982535000000000e-02, -7.458289000000000e-03, 3.940786877316954e-04, 5.229887029999721e-03, -1.826062237349028e-02, -3.750332158470906e-01, -1.393258017498002e+01, -9.142841319606330e+01, 1.705163407580671e+06, 3.418092208775357e+04, 2.054337419044827e+05, 1.720754066122058e+06
294, -6.688208000000000e-02, -7.388282000000000e-03, 3.870091966755716e-04, 6.156480832453046e-03, -1.874544037941625e-02, -4.396950186995768e-01, -1.885634710962175e+01, -1.104011828089174e+02, 1.620772767238359e+06, 3.146640995489388e+04, 2.004580876751663e+05, 1.639093797486641e+06
295, -5.374259000000000e-02, -7.287529000000000e-03, 3.721497173038716e-04, 7.148358741862434e-03, -1.945601427727481e-02, -5.077639767781441e-01, -2.472455919965130e+01, -1.326377425178143e+02, 1.549075393307190e+06, 3.056198106251215e+04, 2.013007395271959e+05, 1.570977700065713e+06
296, -4.044550000000000e-02, -7.157976000000000e-03, 3.493173989527071e-04, 8.203280049140360e-03, -2.057770061740605e-02, -5.787302208149830e-01, -3.154299950113172e+01, -1.585954620233799e+02, 1.483738028818289e+06, 3.237364397138071e+04, 2.044928504069960e+05, 1.507888550613856e+06
297, -2.702974000000000e-02, -7.001662000000000e-03, 3.183205120401547e-04, 9.318483393312673e-03, -2.227386669460010e-02, -6.520470904249758e-01, -3.924312345809756e+01, -1.884857634703627e+02, 1.421344109492568e+06, 3.476888042583609e+04, 2.071499815333178e+05, 1.447147305998417e+06
298, -1.353473000000000e-02, -6.820770000000000e-03, 2.790378813378700e-04, 1.049066222367455e-02, -2.469762869506009e-02, -7.269581329989383e-01, -4.774000077071467e+01, -2.220034455527509e+02, 1.360663618078614e+06, 3.649290417765101e+04, 2.087066321257770e+05, 1.388402647910945e+06
299, -9.637083000000000e-13, -6.617531000000000e-03, 2.314237909104466e-04, 1.171606940429224e-02, -2.804168666462764e-02, -8.024615027994437e-01, -5.701258058265844e+01, -2.582939766049400e+02, 1.300973353340360e+06, 3.770457035505853e+04, 2.094714727301098e+05, 1.330924945147565e+06
300, 1.353473000000000e-02, -6.394229000000000e-03, 1.755025794876506e-04, 1.299051559353690e-02, -3.257817044205863e-02, -8.775218640453222e-01, -6.717393256549586e+01, -2.962048547797019e+02, 1.241386283523344e+06, 3.874731019421289e+04, 2.094926572400320e+05, 1.273534135357236e+06
301, 2.702974000000000e-02, -6.153156000000000e-03, 1.113688269503275e-04, 1.430934198627595e-02, -3.862817168900318e-02, -9.514797989106704e-01, -7.846542066032583e+01, -3.348636079771478e+02, 1.181012014413988e+06, 3.966005987239862e+04, 2.085434034630276e+05, 1.215173110568070e+06
302, 4.044550000000000e-02, -5.896584000000000e-03, 3.919623963057097e-05, 1.566739939132305e-02, -4.642170386915234e-02, -1.024319483677989e+00, -9.110123080891242e+01, -3.741497086188891e+02, 1.119227143189002e+06, 4.039236952073430e+04, 2.063350054995082e+05, 1.155067533460183e+06
303, 5.374259000000000e-02, -5.626765000000000e-03, -4.074821046702369e-05, 1.705901756553856e-02, -5.598260497401258e-02, -1.096302372196704e+00, -1.051016940054484e+02, -4.144319638671464e+02, 1.055777650205728e+06, 4.085936057859310e+04, 2.026205599579313e+05, 1.092830956685585e+06
304, 6.688208000000000e-02, -5.345890000000000e-03, -1.280969274538037e-04, 1.847804496352556e-02, -6.721666008597260e-02, -1.167367477324045e+00, -1.203344715201033e+02, -4.558930990950610e+02, 9.907060434919130e+05, 4.088718759099856e+04, 1.973112185087909e+05, 1.028534261375195e+06
305, 7.982535000000000e-02, -5.056110000000000e-03, -2.223725373206047e-04, 1.991785954611076e-02, -8.004791916142007e-02, -1.237177359967714e+00, -1.366541739169610e+02, -4.983996848117637e+02, 9.242065681658149e+05, 4.042503966282360e+04, 1.904957405066229e+05, 9.624054752170468e+05
306, 9.253454000000000e-02, -4.759500000000000e-03, -3.229945746846661e-04, 2.137145422402782e-02, -9.442616193186681e-02, -1.305400071205140e+00, -1.539435494696986e+02, -5.417174183375217e+02, 8.565160475553728e+05, 3.952750036573787e+04, 1.822696862904219e+05, 8.946279899492669e+05
307, 1.049722000000000e-01, -4.458091000000000e-03, -4.292765350916956e-04, 2.283143130537546e-02, -1.102806790130780e-01, -1.371794354577206e+00, -1.720849414255654e+02, -5.856259927788107e+02, 7.878998277333786e+05, 3.822484434778004e+04, 1.727049364134183e+05, 8.254214444515294e+05
308, 1.171021000000000e-01, -4.153842000000000e-03, -5.404358012520082e-04, 2.429013604220176e-02, -1.275015596575061e-01, -1.436164683944463e+00, -1.909416846924955e+02, -6.299021502831840e+02, 7.187149765958065e+05, 3.650277578813980e+04, 1.618738465783446e+05, 7.551331377678495e+05
309, 1.288884000000000e-01, -3.848675000000000e-03, -6.555892368799744e-04, 2.573961209908923e-02, -1.459441683419093e-01, -1.498317810740641e+00, -2.103592242508535e+02, -6.742814842695350e+02, 6.494089719341781e+05, 3.437095071975324e+04, 1.499191128275187e+05, 6.842329494428900e+05
310, 1.402968000000000e-01, -3.544456000000000e-03, -7.737706777072855e-04, 2.717180332000373e-02, -1.654388656663679e-01, -1.558072071274372e+00, -2.301746597561186e+02, -7.184618356772647e+02, 5.805025489189296e+05, 3.185011668737837e+04, 1.370007986051360e+05, 6.132669619891300e+05
311, 1.512935000000000e-01, -3.243024000000000e-03, -8.939316026866986e-04, 2.857849617682473e-02, -1.857921300189413e-01, -1.615264401771498e+00, -2.502185796762166e+02, -7.621138580326545e+02, 5.125442195216414e+05, 2.898282312965234e+04, 1.233314286190475e+05, 5.428390085664728e+05
312, 1.618466000000000e-01, -2.946179000000000e-03, -1.014966577465630e-03, 2.995157117490137e-02, -2.067903610563362e-01, -1.669759790362676e+00, -2.703185418266275e+02, -8.048955141612731e+02, 4.461141020429113e+05, 2.582316362891599e+04, 1.091144450254784e+05, 4.735697639902587e+05
313, 1.719248000000000e-01, -2.655704000000000e-03, -1.135716456941658e-03, 3.128291430417258e-02, -2.282005182801647e-01, -1.721439843069093e+00, -2.902984347610740e+02, -8.464494981631042e+02, 3.818124313363015e+05, 2.243323923118674e+04, 9.459107439104037e+04, 4.061321079844960e+05
314, 1.814989000000000e-01, -2.373364000000000e-03, -1.254997755792197e-03, 3.256469340324552e-02, -2.497780861611696e-01, -1.770205390192569e+00, -3.099844919292769e+02, -8.864114769667005e+02, 3.202646991256694e+05, 1.886763910071282e+04, 8.000707507982430e+04, 3.412399684137276e+05
315, 1.905404000000000e-01, -2.100903000000000e-03, -1.371610779880016e-03, 3.378925614577914e-02, -2.712690998838005e-01, -1.815965125883094e+00, -3.292054115794894e+02, -9.244089468219361e+02, 2.620999924774835e+05, 1.521030330053153e+04, 6.564756370697952e+04, 2.796299860611156e+05
316, 1.990233000000000e-01, -1.840017000000000e-03, -1.484379516153064e-03, 3.494945374082759e-02, -2.924196065704232e-01, -1.858639898511369e+00, -3.477988605259318e+02, -9.600745909732178e+02, 2.079419406545478e+05, 1.153857166000410e+04, 5.178690624593208e+04, 2.220401269737223e+05
317, 2.069223000000000e-01, -1.592393000000000e-03, -1.592151423970682e-03, 3.603847668027893e-02, -3.129764810422122e-01, -1.898148716175611e+00, -3.656098601566088e+02, -9.930468830956266e+02, 1.583921283584542e+05, 7.939217451223089e+03, 3.872269151571026e+04, 1.692154418288788e+05
318, 2.142143000000000e-01, -1.359751000000000e-03, -1.693825960417480e-03, 3.705013423474707e-02, -3.326963947257209e-01, -1.934411933035722e+00, -3.824959437605419e+02, -1.022988213572974e+03, 1.140106899031839e+05, 4.507494484844262e+03, 2.674833686638814e+04, 1.218722442039129e+05
319, 2.208774000000000e-01, -1.143720000000000e-03, -1.788382591313001e-03, 3.797878359714280e-02, -3.513465790464880e-01, -1.967345214227823e+00, -3.983245760756629e+02, -1.049599189918685e+03, 7.528793337795779e+04, 1.344666958854404e+03, 1.616853859687679e+04, 8.070497636553326e+04
320, 2.268939000000000e-01, -9.455361000000000e-04, -1.874970957847455e-03, 3.881980439565615e-02, -3.687149624403925e-01, -1.996878674588652e+00, -4.129782255544131e+02, -1.072655848093856e+03, 4.262851502062595e+04, -1.490464488652275e+03, 7.258938418990844e+03, 4.644623882321277e+04
321, 2.322460000000000e-01, -7.665862000000001e-04, -1.952808874030463e-03, 3.956904752709288e-02, -3.846012116692670e-01, -2.022940767554622e+00, -4.263427928631220e+02, -1.092020134510587e+03, 1.629524186947493e+04, -3.924830362626429e+03, 2.877443424905434e+02, 2.022826014015881e+04
322, 2.369133000000000e-01, -6.092434000000000e-04, -2.021050864721175e-03, 4.022251528358744e-02, -3.988114217728340e-01, -2.045451392557816e+00, -4.382984148162983e+02, -1.107662983395259e+03, -3.657677311956811e+03, -5.847741389093724e+03, -4.472324021353832e+03, 9.208860367595960e+03
323, 2.408804000000000e-01, -4.750271000000000e-04, -2.079127969842975e-03, 4.077741369321174e-02, -4.111707901056325e-01, -2.064373636663055e+00, -4.487264221794758e+02, -1.119730251141683e+03, -1.721267273002944e+04, -7.130685763836380e+03, -6.910940674933250e+03, 1.710821046270691e+04
324, 2.441551000000000e-01, -3.610512000000000e-04, -2.127423036292212e-03, 4.123463463698877e-02, -4.215675534712269e-01, -2.079816350943037e+00, -4.575476668237104e+02, -1.128612592230141e+03, -2.480685765575775e+04, -8.004782951013422e+03, -7.139938473366044e+03, 2.205050112803833e+04
325, 2.467325000000000e-01, -2.671960000000000e-04, -2.165894494751608e-03, 4.159369631187980e-02, -4.298719606291570e-01, -2.091840875800846e+00, -4.646474181704765e+02, -1.134783322099821e+03, -2.771376303343344e+04, -8.215749128715943e+03, -5.265568751803672e+03, 2.216026631943853e+04
326, 2.485345000000000e-01, -2.088133000000000e-04, -2.191691678955567e-03, 4.184430590399447e-02, -4.357864454774889e-01, -2.100138402491372e+00, -4.697260398382389e+02, -1.138588527296143e+03, -2.644225824609256e+04, -8.246931728076088e+03, -2.021269418907329e+03, 1.863899212276440e+04
327, 2.495362000000000e-01, -1.903924000000000e-04, -2.204040578060162e-03, 4.198357686901170e-02, -4.391612406863703e-01, -2.104675227140402e+00, -4.726127255401915e+02, -1.140504700450013e+03, -1.878874268756683e+04, -7.062574781848371e+02, -3.914905935762065e+03, 1.970487821050865e+04
328, 2.502041000000000e-01, -1.235855000000000e-04, -2.219857995329335e-03, 4.207588329974216e-02, -4.411720665662973e-01, -2.107886481700327e+00, -4.744458763783443e+02, -1.141922100972909e+03, -1.247057022493428e+04, -2.513062240937124e+02, -1.266814763789219e+04, 2.812895787305269e+04
329, -1.990233000000000e-01, -8.841386000000000e-03, 0.000000000000000e+00, 0.000000000000000e+00, 0.000000000000000e+00, 0.000000000000000e+00, 0.000000000000000e+00, 0.000000000000000e+00, 8.456971522766609e+06, 2.925327426865857e+06, 1.929768188711672e+06, 6.745006112107515e+06
330, -1.905404000000000e-01, -9.324733000000000e-03, 9.053389528735400e-05, 6.377154451598617e-05, -5.241685021521460e-03, -4.269108279859535e-03, -8.498260719956847e-01, -1.630131498716769e+00, 6.854961765881172e+06, -4.742604519960615e+05, -9.849427077614435e+04, 7.331868984408285e+06
331, -1.814989000000000e-01, -9.756861000000000e-03, 1.860249615797429e-04, 2.122847663568564e-04, -1.074109701452185e-02, -1.502313624676735e-02, -1.604436895870371e+00, -5.146835572666715e+00, 6.361385750776594e+06, 3.899031805315449e+04, 4.499793924843150e+04, 6.323035921601950e+06
332, -1.719248000000000e-01, -1.013586000000000e-02, 2.719641050824910e-04, 4.467704873238441e-04, -1.555995308022644e-02, -3.210990995310010e-02, -2.119511799451613e+00, -9.988452971439905e+00, 5.439172309210707e+06, -5.902886345955092e+03, 1.077341856381156e+05, 5.449336703149004e+06
333, -1.618466000000000e-01, -1.046039000000000e-02, 3.508347855180513e-04, 7.683618845609278e-04, -1.986087808740730e-02, -5.544990434673312e-02, -2.620646003675976e+00, -1.589303436893344e+01, 4.794213445028953e+06, 1.012126992258106e+04, 1.588692151164470e+05, 4.794631961888303e+06
334, -1.512935000000000e-01, -1.072941000000000e-02, 4.213882423477666e-04, 1.174161052639409e-03, -2.361267786180502e-02, -8.480316255940248e-02, -3.282367786874718e+00, -2.272019865797889e+01, 4.247769793827562e+06, 1.520637100735125e+04, 1.900529126715051e+05, 4.249596871075563e+06
335, -1.402968000000000e-01, -1.094255000000000e-02, 4.832083846241555e-04, 1.661910632639477e-03, -2.683663195276954e-02, -1.199787580894478e-01, -4.276195089070419e+00, -3.045479848255095e+01, 3.800628710284030e+06, 2.085515077603136e+04, 2.095991980147366e+05, 3.802948258442317e+06
336, -1.288884000000000e-01, -1.109975000000000e-02, 5.358930990935277e-04, 2.229178540673296e-03, -2.956069491409483e-02, -1.607641319656061e-01, -5.764436179679092e+00, -3.918894651385326e+01, 3.431265081851947e+06, 2.554879943526175e+04, 2.211851987683326e+05, 3.434325984081138e+06
337, -1.171021000000000e-01, -1.120162000000000e-02, 5.791787622921764e-04, 2.873433307860274e-03, -3.182952261682480e-02, -2.069268695598799e-01, -7.901184162240795e+00, -4.913903962299217e+01, 3.127171169816939e+06, 2.953042713421309e+04, 2.274916506881860e+05, 3.130876550625931e+06
338, -1.049722000000000e-01, -1.124912000000000e-02, 6.129122821202942e-04, 3.592120240344578e-03, -3.369746751157054e-02, -2.582151402841096e-01, -1.081629398380053e+01, -6.065515464868329e+01, 2.879133113575716e+06, 3.284827389804197e+04, 2.304484644544893e+05, 2.883359736081623e+06
339, -9.253454000000000e-02, -1.124378000000000e-02, 6.370611671176976e-04, 4.382677873585986e-03, -3.522365232021824e-02, -3.143282106635208e-01, -1.459566417216071e+01, -7.417814703272569e+01, 2.680201657130526e+06, 3.524832375995012e+04, 2.318764324951138e+05, 2.685301632125294e+06
340, -7.982535000000000e-02, -1.118743000000000e-02, 6.516733062976707e-04, 5.242714355181000e-03, -3.648031612945607e-02, -3.748715938475923e-01, -1.928684792463293e+01, -9.014481505557495e+01, 2.522989181546077e+06, 3.632136174599942e+04, 2.338599294630659e+05, 2.530272458148164e+06
341, -6.688208000000000e-02, -1.108242000000000e-02, 6.568054784642520e-04, 6.170047190604886e-03, -3.758275253654191e-02, -4.393364955570200e-01, -2.493455643892903e+01, -1.089415968920370e+02, 2.397179177282145e+06, 3.644568979848913e+04, 2.381462637251363e+05, 2.408301719185475e+06
342, -5.374259000000000e-02, -1.093129000000000e-02, 6.523909012671515e-04, 7.162649514714017e-03, -3.869931916908984e-02, -5.071782198806077e-01, -3.157644348279654e+01, -1.309908599712905e+02, 2.290711537378266e+06, 3.741770531684573e+04, 2.445428384562199e+05, 2.305761889911216e+06
343, -4.044550000000000e-02, -1.073696000000000e-02, 6.382339845400389e-04, 8.218253286285900e-03, -4.001351888921445e-02, -5.778832290855798e-01, -3.917283709162169e+01, -1.567352416542358e+02, 2.193566807719520e+06, 3.977226316084056e+04, 2.510873742915286e+05, 2.211562890420525e+06
344, -2.702974000000000e-02, -1.050249000000000e-02, 6.141001317696517e-04, 9.334085338033180e-03, -4.167603710217149e-02, -6.508995399200465e-01, -4.757461481911443e+01, -1.863764115393741e+02, 2.100484362627390e+06, 4.239505364458309e+04, 2.562278536247899e+05, 2.120929620624408e+06
345, -1.353473000000000e-02, -1.023115000000000e-02, 5.798293807349394e-04, 1.050683028087965e-02, -4.382065864378010e-02, -7.254760649771586e-01, -5.659746522451704e+01, -2.196147986337764e+02, 2.009766876118277e+06, 4.452300777785393e+04, 2.596841931021779e+05, 2.032714191084951e+06
346, -9.637083000000000e-13, -9.926297000000001e-03, 5.353580080019057e-04, 1.173272968109351e-02, -4.664200921724715e-02, -8.006301451227645e-01, -6.615230879780432e+01, -2.556159932408180e+02, 1.920543414818997e+06, 4.617241875473785e+04, 2.616355810984481e+05, 1.946041967706198e+06
347, 1.353473000000000e-02, -9.591344000000000e-03, 4.807079054913752e-04, 1.300758227448122e-02, -5.046535946281078e-02, -8.753546181464694e-01, -7.636313278606536e+01, -2.932621183755908e+02, 1.831581401853913e+06, 4.751466036767401e+04, 2.620842172254444e+05, 1.859474841387219e+06
348, 2.702974000000000e-02, -9.229734000000000e-03, 4.159837134997395e-04, 1.432671858222234e-02, -5.570761411212666e-02, -9.490118992365709e-01, -8.756035262820815e+01, -3.317081611123697e+02, 1.741543607955662e+06, 4.856805351598356e+04, 2.608614621147083e+05, 1.771541994308018e+06
349, 4.044550000000000e-02, -8.844876000000000e-03, 3.413792742922626e-04, 1.568497997879917e-02, -6.268236729436644e-02, -1.021581373728582e+00, -1.000629130994816e+02, -3.708288308797210e+02, 1.649459410701706e+06, 4.928903061725833e+04, 2.577734744822110e+05, 1.681170396445919e+06
350, 5.374259000000000e-02, -8.440148000000000e-03, 2.571959517183729e-04, 1.707668852405440e-02, -7.143624737854881e-02, -1.093310938137270e+00, -1.139395647695304e+02, -4.109728147316077e+02, 1.554916615459078e+06, 4.961613410733082e+04, 2.526942007970765e+05, 1.587874987404138e+06
351, 6.688208000000000e-02, -8.018835000000000e-03, 1.638521510244665e-04, 1.849568718915370e-02, -8.184872369573604e-02, -1.164150033176644e+00, -1.290404877713003e+02, -4.523240408957796e+02, 1.457997918888259e+06, 4.944336124425676e+04, 2.456223386021407e+05, 1.491759791233571e+06
352, 7.982535000000000e-02, -7.584165000000000e-03, 6.189639398892419e-05, 1.993535024407987e-02, -9.382227831377099e-02, -1.233773867325045e+00, -1.451878838408248e+02, -4.947573821327505e+02, 1.359029731587911e+06, 4.873342256415694e+04, 2.366590343059816e+05, 1.393164172492184e+06
353, 9.253454000000000e-02, -7.139249000000000e-03, -4.800171547292177e-05, 2.138866856477411e-02, -1.073130264296632e-01, -1.301855188837327e+00, -1.622531919277149e+02, -5.380415575624388e+02, 1.258379146797165e+06, 4.751341570183274e+04, 2.259139347112519e+05, 1.292417982824408e+06
354, 1.049722000000000e-01, -6.687137000000000e-03, -1.650471513138682e-04, 2.284824467227272e-02, -1.222664576185328e-01, -1.368153811953780e+00, -1.801212148794502e+02, -5.819555030311253e+02, 1.156441502120548e+06, 4.580831628560578e+04, 2.134948678541678e+05, 1.189884997753206e+06
355, 1.171021000000000e-01, -6.230763000000000e-03, -2.883327740677587e-04, 2.430642642166835e-02, -1.385838262123110e-01, -1.432475154680682e+00, -1.986574066163088e+02, -6.262746794992340e+02, 1.053743279644982e+06, 4.362096691562179e+04, 1.995388415613711e+05, 1.086098560831534e+06
356, 1.288884000000000e-01, -5.773013000000000e-03, -4.168316206704765e-04, 2.575526270277987e-02, -1.561276543293064e-01, -1.494626733281412e+00, -2.177074315618722e+02, -6.707334248622134e+02, 9.509558683950342e+05, 4.097158621286804e+04, 1.842349943678802e+05, 9.817543106182544e+05
357, 1.402968000000000e-01, -5.316684000000000e-03, -5.494175095433640e-04, 2.718670512014881e-02, -1.747353003844985e-01, -1.554426548919879e+00, -2.371099082840992e+02, -7.150277532776474e+02, 8.488534363045685e+05, 3.789208561353227e+04, 1.678076465942700e+05, 8.776650484875535e+05
358, 1.512935000000000e-01, -4.864536000000000e-03, -6.848647341313994e-04, 2.859255050277554e-02, -1.942207601762265e-01, -1.611709776946963e+00, -2.566994156488412e+02, -7.588255774338770e+02, 7.482607978798158e+05, 3.443325347604479e+04, 1.505130552555013e+05, 7.747041256885754e+05
359, 1.618466000000000e-01, -4.419268000000000e-03, -8.218767801163024e-04, 2.996469211128602e-02, -2.143772617842552e-01, -1.666338395599273e+00, -2.763090909147063e+02, -8.017813277532795e+02, 6.500333277681816e+05, 3.065844306880244e+04, 1.326239308221991e+05, 6.737816233048324e+05
360, 1.719248000000000e-01, -3.983556000000000e-03, -9.590900672776019e-04, 3.129503101576708e-02, -2.349773980083714e-01, -1.718189916205487e+00, -2.957693077436913e+02, -8.435335608521771e+02, 5.550646554390076e+05, 2.664115062691185e+04, 1.144396712074063e+05, 5.758620961846126e+05
361, 1.814989000000000e-01, -3.560046000000000e-03, -1.095106366614769e-03, 3.257575217398306e-02, -2.557811373605468e-01, -1.767160104265897e+00, -3.149135789731978e+02, -8.837133502080412e+02, 4.642791273578765e+05, 2.245503490771174e+04, 9.628389944201233e+04, 4.819656479838059e+05
362, 1.905404000000000e-01, -3.151355000000000e-03, -1.228503422711888e-03, 3.379922201517051e-02, -2.765380522915017e-01, -1.813151753577898e+00, -3.335787610049867e+02, -9.219432522760371e+02, 3.786148916569398e+05, 1.819427779130626e+04, 7.849900869073054e+04, 3.931302536831650e+05
363, 1.990233000000000e-01, -2.760025000000000e-03, -1.357880519000729e-03, 3.495831156204831e-02, -2.969968311205951e-01, -1.856079200516799e+00, -3.516114922389993e+02, -9.578508515319857e+02, 2.989925115371779e+05, 1.395287892893788e+04, 6.143565223482730e+04, 3.103948285966038e+05
364, 2.069223000000000e-01, -2.388589000000000e-03, -1.481858191250457e-03, 3.604623189231171e-02, -3.169064454301131e-01, -1.895854509871361e+00, -3.688667145633991e+02, -9.910694673948487e+02, 2.263092759916104e+05, 9.827818658999966e+03, 4.544938620934205e+04, 2.347909883195575e+05
365, 2.142143000000000e-01, -2.039626000000000e-03, -1.599108346647322e-03, 3.705681321927112e-02, -3.360255130870204e-01, -1.932390838714599e+00, -3.852129457047274e+02, -1.021256370527879e+03, 1.613963506645831e+05, 5.929420464314474e+03, 3.089830342728000e+04, 1.672984967195828e+05
366, 2.208774000000000e-01, -1.715579000000000e-03, -1.708393972507270e-03, 3.798443290689800e-02, -3.541232627712587e-01, -1.965596739162272e+00, -4.005294325879725e+02, -1.048107316889682e+03, 1.049885076780999e+05, 2.368777731782906e+03, 1.813115738372254e+04, 1.088382490053395e+05
367, 2.268939000000000e-01, -1.418304000000000e-03, -1.808683919404518e-03, 3.882448795424469e-02, -3.709892798703129e-01, -1.995395981929462e+00, -4.147102625190865e+02, -1.071394233321974e+03, 5.768700167489469e+04, -7.881813751257575e+02, 7.472334635496961e+03, 6.035470298454619e+04
368, 2.322460000000000e-01, -1.149879000000000e-03, -1.899017326634550e-03, 3.957284584889892e-02, -3.864258112938801e-01, -2.021710776267294e+00, -4.276530767954239e+02, -1.090974999313077e+03, 1.989099139057267e+04, -3.470422572042207e+03, -7.901512521926023e+02, 2.341480340165220e+04
369, 2.369133000000000e-01, -9.138651000000000e-04, -1.978315064037056e-03, 4.022552849575056e-02, -4.002443240915028e-01, -2.044453491978199e+00, -4.392501726086763e+02, -1.106815274042761e+03, -8.300204164232042e+03, -5.560304165335559e+03, -6.382756164572736e+03, 1.305623824191019e+04
370, 2.408804000000000e-01, -7.125407000000000e-04, -2.045851764687776e-03, 4.077975509874357e-02, -4.122734663082859e-01, -2.063581332573309e+00, -4.493904786084545e+02, -1.119056838712509e+03, -2.688087972171799e+04, -6.919140992458848e+03, -9.183639028957863e+03, 2.712614820338481e+04
371, 2.441551000000000e-01, -5.415768000000000e-04, -2.102180697501728e-03, 4.123640674006736e-02, -4.223944123266867e-01, -2.079204876521100e+00, -4.579916388922305e+02, -1.128092432960619e+03, -3.650539487760952e+04, -7.830349282399394e+03, -9.330442867695896e+03, 3.421237928464971e+04
372, 2.467325000000000e-01, -4.007940000000000e-04, -2.147253346876144e-03, 4.159500222662210e-02, -4.304763052564182e-01, -2.091382938737077e+00, -4.649350978170425e+02, -1.134393428458643e+03, -3.918769710617141e+04, -8.123578913636816e+03, -7.159530573456838e+03, 3.420548130356905e+04
373, 2.485345000000000e-01, -3.132200000000000e-04, -2.177148036989054e-03, 4.184532331815941e-02, -4.362544234050789e-01, -2.099777846976488e+00, -4.699278690144016e+02, -1.138281450375233e+03, -3.530872720514995e+04, -7.349192469289590e+03, -3.209887186617426e+03, 2.868708918048370e+04
374, 2.495362000000000e-01, -2.855885000000000e-04, -2.190789222190654e-03, 4.198450272079929e-02, -4.395863397380642e-01, -2.104345453387900e+00, -4.727883369408536e+02, -1.140223688521036e+03, -2.269737586370977e+04, -9.948995978004410e+02, -1.933776525430282e+03, 2.204439708119908e+04
375, 2.501265000000000e-01, -1.963230000000000e-04, -2.208973531060602e-03, 4.206579046984209e-02, -4.412290601571138e-01, -2.107288198734795e+00, -4.743537149448495e+02, -1.141565364227019e+03, -6.653223762671629e+03, 6.299417500463171e+03, -1.352105512629640e+04, 2.998410650002510e+04
376, -1.990233000000000e-01, -1.178851000000000e-02, 0.000000000000000e+00, 0.000000000000000e+00, 0.000000000000000e+00, 0.000000000000000e+00, 0.000000000000000e+00, 0.000000000000000e+00, 1.244544771414743e+07, 4.293601935877326e+06, 2.416908759561101e+06, 9.477256005873900e+06
377, -1.905404000000000e-01, -1.243298000000000e-02, 1.334652944482549e-04, 7.954631338591242e-05, -8.206190311908713e-03, -5.223788732139382e-03, -1.833568780171281e+00, -1.780545018579209e+00, 9.452094093980197e+06, -2.165580522713051e+05, -3.450189522776898e+05, 9.693244381265590e+06
378, -1.814989000000000e-01, -1.300915000000000e-02, 2.536946136817421e-04, 2.241502239875141e-04, -1.563384496940862e-02, -1.571618955341762e-02, -3.103373804829708e+00, -5.126276025220832e+00, 8.287399907927837e+06, 4.802910164055832e+05, -1.326892711729815e+05, 7.811617951156054e+06
379, -1.719248000000000e-01, -1.351448000000000e-02, 3.681017054573805e-04, 4.588167059148793e-04, -2.253960245389645e-02, -3.278286973370294e-02, -4.056700604446135e+00, -9.844612498108800e+00, 7.263798999568127e+06, 3.145277674815902e+05, -2.490359655703563e+04, 6.949449720200257e+06
380, -1.618466000000000e-01, -1.394718000000000e-02, 4.734323005118308e-04, 7.800961029737732e-04, -2.876703626592656e-02, -5.606703510506436e-02, -4.904132600757359e+00, -1.561654577597968e+01, 6.401664925277319e+06, 3.098437285104604e+05, 6.700829636862647e+04, 6.093295162759384e+06
381, -1.512935000000000e-01, -1.430588000000000e-02, 5.688191747353746e-04, 1.185942842875418e-03, -3.431802161616439e-02, -8.537488477138200e-02, -5.870564605833068e+00, -2.231545181438969e+01, 5.680788032279879e+06, 2.765340967943239e+05, 1.296596331023438e+05, 5.410471983204057e+06
382, -1.402968000000000e-01, -1.459006000000000e-02, 6.537028459343111e-04, 1.673873118406606e-03, -3.920508735078679e-02, -1.204968548050456e-01, -7.163587910196501e+00, -2.992294829842560e+01, 5.088640574812818e+06, 2.561426504383957e+05, 1.728401264301547e+05, 4.844845820694470e+06
383, -1.288884000000000e-01, -1.479966000000000e-02, 7.276165772844945e-04, 2.241455571715514e-03, -4.344859274888008e-02, -1.612166815755489e-01, -8.980215629649692e+00, -3.853243911743455e+01, 4.597752800826570e+06, 2.384354047096367e+05, 2.029921634727355e+05, 4.378181292935810e+06
384, -1.171021000000000e-01, -1.493550000000000e-02, 7.902522120108472e-04, 2.886122312421876e-03, -4.708563836011777e-02, -2.072957047417786e-01, -1.150886797054032e+01, -4.835912957988108e+01, 4.192368503462621e+06, 2.244404684281314e+05, 2.241310660686122e+05, 3.993168144508929e+06
385, -1.049722000000000e-01, -1.499882000000000e-02, 8.414407739541182e-04, 3.605299902705823e-03, -5.016044994555421e-02, -2.584755926534782e-01, -1.490567745818440e+01, -5.974832699609733e+01, 3.860890954772398e+06, 2.132677240244911e+05, 2.394649774968238e+05, 3.678930433601866e+06
386, -9.253454000000000e-02, -1.499170000000000e-02, 8.811800838680849e-04, 4.396413221525753e-03, -5.271517061957399e-02, -3.144485578650884e-01, -1.926260610625563e+01, -7.313307142238236e+01, 3.595020995693253e+06, 2.045678483095875e+05, 2.515328125045748e+05, 3.427571672141904e+06
387, -7.982535000000000e-02, -1.491658000000000e-02, 9.095816551623230e-04, 5.257058634514398e-03, -5.479911864498642e-02, -3.748160670282323e-01, -2.461321778270918e+01, -8.894568876163393e+01, 3.385806416207262e+06, 1.977220256532404e+05, 2.624150795744454e+05, 3.230995013497616e+06
388, -6.688208000000000e-02, -1.477656000000000e-02, 9.267765346492565e-04, 6.185032318425730e-03, -5.651387258179351e-02, -4.390709989532173e-01, -3.098998712345026e+01, -1.075748270573236e+02, 3.219545258197867e+06, 1.922530849836619e+05, 2.731731241781904e+05, 3.076197673280616e+06
389, -5.374259000000000e-02, -1.457506000000000e-02, 9.327279505949666e-04, 7.178272603580146e-03, -5.803318966845331e-02, -5.066710516629389e-01, -3.842491538154706e+01, -1.294402365607830e+02, 3.078831837190286e+06, 1.881850343300598e+05, 2.834801003319509e+05, 2.945722798910804e+06
390, -4.044550000000000e-02, -1.431595000000000e-02, 9.272007910932541e-04, 8.234478910339089e-03, -5.954802750878993e-02, -5.770995733197897e-01, -4.684089824809359e+01, -1.549706657390234e+02, 2.949291683357918e+06, 1.851136294284871e+05, 2.923155050389195e+05, 2.825327190215273e+06
391, -2.702974000000000e-02, -1.400332000000000e-02, 9.098955821215261e-04, 9.350859628515319e-03, -6.119246326120339e-02, -6.497996622805101e-01, -5.599358204488505e+01, -1.843558353010290e+02, 2.824192532008549e+06, 1.821650162236712e+05, 2.990850485318692e+05, 2.708895874555841e+06
392, -1.353473000000000e-02, -1.364154000000000e-02, 8.806097061756757e-04, 1.052408918857494e-02, -6.306443404639411e-02, -7.240252414008950e-01, -6.557576424588657e+01, -2.173003724182833e+02, 2.701978766085563e+06, 1.788645333938885e+05, 3.037660395397170e+05, 2.595226513875403e+06
393, -9.637083000000000e-13, -1.323506000000000e-02, 8.392605150618972e-04, 1.175039913756052e-02, -6.534507666027084e-02, -7.988145920567445e-01, -7.540917828221312e+01, -2.529944379380344e+02, 2.581800785623375e+06, 1.751707656584887e+05, 3.064479894736387e+05, 2.483447107148838e+06
394, 1.353473000000000e-02, -1.278846000000000e-02, 7.858710712179286e-04, 1.302557733021711e-02, -6.841453859036178e-02, -8.731914617232499e-01, -8.562663612275404e+01, -2.903595151383097e+02, 2.461975243452482e+06, 1.710798475918294e+05, 3.070750238780287e+05, 2.371788775573049e+06
395, 2.702974000000000e-02, -1.230631000000000e-02, 7.205520901007109e-04, 1.434494349866266e-02, -7.281348933843712e-02, -9.465407947044491e-01, -9.668072316367449e+01, -3.285809385345325e+02, 2.340632244515949e+06, 1.664951541418119e+05, 3.055040790233638e+05, 2.258362915241962e+06
396, 4.044550000000000e-02, -1.179317000000000e-02, 6.435167139771614e-04, 1.570332975917873e-02, -7.896645932124591e-02, -1.018838502852092e+00, -1.090333632349118e+02, -3.675313817837149e+02, 2.216423850866587e+06, 1.613089510044697e+05, 3.016002887876475e+05, 2.141809559326517e+06
397, 5.374259000000000e-02, -1.125353000000000e-02, 5.550971454300949e-04, 1.709505075157222e-02, -8.692807322434482e-02, -1.090318114015846e+00, -1.227958357278682e+02, -4.075389089989282e+02, 2.088801199956134e+06, 1.554537332178215e+05, 2.953183860981474e+05, 2.021554902498052e+06
398, 6.688208000000000e-02, -1.069178000000000e-02, 4.557623481092073e-04, 1.851394455200265e-02, -9.652469867146252e-02, -1.160932261636886e+00, -1.377731184481362e+02, -4.487810137614357e+02, 1.957936289431694e+06, 1.488761284864261e+05, 2.867213252955177e+05, 1.897771097744981e+06
399, 7.982535000000000e-02, -1.011222000000000e-02, 3.461312715325327e-04, 1.995338251120709e-02, -1.076364548242507e-01, -1.230368591290703e+00, -1.537479454851903e+02, -4.911389750501927e+02, 1.824328610869357e+06, 1.415767781018111e+05, 2.759225541095034e+05, 1.770928218236917e+06
400, 9.253454000000000e-02, -9.518999000000000e-03, 2.269626867252191e-04, 2.140635427925864e-02, -1.202343702629856e-01, -1.298307152756684e+00, -1.705863635450345e+02, -5.343865866697524e+02, 1.688483306642859e+06, 1.335947405151808e+05, 2.630419384576796e+05, 1.641475768515905e+06
401, 1.049722000000000e-01, -8.916182000000000e-03, 9.915931975491140e-05, 2.286546316245746e-02, -1.342830210827908e-01, -1.364509575889737e+00, -1.881790839688275e+02, -5.783031407119239e+02, 1.550926332922598e+06, 1.249774517034708e+05, 2.482120676692615e+05, 1.509889775446102e+06
402, 1.171021000000000e-01, -8.307683999999999e-03, -3.624702604561022e-05, 2.432306014638025e-02, -1.496938113737146e-01, -1.428781805373305e+00, -2.063933580499962e+02, -6.226627287574387e+02, 1.412370566145701e+06, 1.157740324848855e+05, 2.316192240715845e+05, 1.376863257894310e+06
403, 1.288884000000000e-01, -7.697351000000000e-03, -1.780861883848605e-04, 2.577119978459946e-02, -1.663355279267460e-01, -1.490931840084166e+00, -2.250742413975644e+02, -6.671982646788081e+02, 1.273736372880185e+06, 1.060587571347021e+05, 2.134902728905889e+05, 1.243295379541261e+06
404, 1.402968000000000e-01, -7.088912000000000e-03, -3.250721041037423e-04, 2.720184180743385e-02, -1.840526611612694e-01, -1.550777357455326e+00, -2.440618376997166e+02, -7.116040050721756e+02, 1.136076630327335e+06, 9.592545803503640e+04, 1.941016385680257e+05, 1.110232518709578e+06
405, 1.512935000000000e-01, -6.486048000000000e-03, -4.758018251209555e-04, 2.860679366419169e-02, -2.026670471848286e-01, -1.608151793803589e+00, -2.631950011911069e+02, -7.555452371548645e+02, 1.000515144574104e+06, 8.548705366625273e+04, 1.737474248230274e+05, 9.787895982697203e+05
406, 1.618466000000000e-01, -5.892357000000000e-03, -6.287878860832089e-04, 2.997796147768528e-02, -2.219788644914649e-01, -1.662914077162420e+00, -2.823125933760290e+02, -7.986729161568865e+02, 8.682042542959513e+05, 7.487253503393254e+04, 1.527569212784601e+05, 8.501258287930823e+05
407, 1.719248000000000e-01, -5.311408000000000e-03, -7.824622152440211e-04, 3.130726139337105e-02, -2.417663422931209e-01, -1.714937549053459e+00, -3.012514861230022e+02, -8.406214639728904e+02, 7.403545948845457e+05, 6.422443896880254e+04, 1.314788563940766e+05, 7.254645039238129e+05
408, 1.814989000000000e-01, -4.746728000000000e-03, -9.352118911833841e-04, 3.258689533718563e-02, -2.617939426908025e-01, -1.764112858452196e+00, -3.198524659167279e+02, -8.810173654274037e+02, 6.182152116719484e+05, 5.369320963004707e+04, 1.103009403141649e+05, 6.060942835286870e+05
409, 1.905404000000000e-01, -4.201807000000000e-03, -1.085391960323995e-03, 3.380924825432709e-02, -2.818147816079370e-01, -1.810336854796643e+00, -3.379605502145191e+02, -9.194782439434692e+02, 5.030587603949879e+05, 4.344524495325962e+04, 8.961556856864395e+04, 4.933238126182732e+05
410, 1.990233000000000e-01, -3.680033000000000e-03, -1.231376976540982e-03, 3.496721060563499e-02, -3.015801784963723e-01, -1.853517337957113e+00, -3.554313337848372e+02, -9.556265955157293e+02, 3.961266736101941e+05, 3.364980394154197e+04, 6.983612939706523e+04, 3.884556872043959e+05
411, 2.069223000000000e-01, -3.184785000000000e-03, -1.371560413932287e-03, 3.605401360486140e-02, -3.208411743710833e-01, -1.893559410892040e+00, -3.721296512106717e+02, -9.890905919561671e+02, 2.986369122005095e+05, 2.447368369600865e+04, 5.136815497543737e+04, 2.927801653909181e+05
412, 2.142143000000000e-01, -2.719501000000000e-03, -1.504386546742939e-03, 3.706350786527822e-02, -3.393582781720805e-01, -1.930369040602648e+00, -3.879349737072043e+02, -1.019522397092878e+03, 2.117139520407960e+05, 1.609546593620614e+04, 3.462327756094636e+04, 2.075130779061911e+05
413, 2.208774000000000e-01, -2.287439000000000e-03, -1.628401601496792e-03, 3.799009034292365e-02, -3.569026735225085e-01, -1.963847678268587e+00, -4.027383231143717e+02, -1.046612918352005e+03, 1.363554603712327e+05, 8.683969728877299e+03, 1.998903885547924e+04, 1.337843646331831e+05
414, 2.268939000000000e-01, -1.891072000000000e-03, -1.742393962572646e-03, 3.882917475628339e-02, -3.732655762579293e-01, -1.993912789691662e+00, -4.164454116786588e+02, -1.070129978830288e+03, 7.337594858125993e+04, 2.353004139813878e+03, 7.829363321962524e+03, 7.272863505691482e+04
415, 2.322460000000000e-01, -1.533172000000000e-03, -1.845223577340805e-03, 3.957664460141565e-02, -3.882518003341853e-01, -2.020480351226587e+00, -4.289656367754983e+02, -1.089927352187919e+03, 2.332370789764246e+04, -2.798313513566671e+03, -1.550256734641722e+03, 2.630538322056678e+04
416, 2.369133000000000e-01, -1.218487000000000e-03, -1.935577728077946e-03, 4.022854079336823e-02, -4.016781526227700e-01, -2.043455218887312e+00, -4.402034688567104e+02, -1.105965370077198e+03, -1.365893671572980e+04, -6.640952865787109e+03, -7.874457314577481e+03, 1.724182151962105e+04
417, 2.408804000000000e-01, -9.500542000000000e-04, -2.012574639672309e-03, 4.078209518621487e-02, -4.133767172673180e-01, -2.062788723787010e+00, -4.500554553967912e+02, -1.118381678402096e+03, -3.758107719423297e+04, -9.032480426920562e+03, -1.101323953779918e+04, 3.605812194014509e+04
418, 2.441551000000000e-01, -7.221023000000000e-04, -2.076937898474387e-03, 4.123817766291218e-02, -4.232215965128086e-01, -2.078593176870797e+00, -4.584360738796246e+02, -1.127571034609229e+03, -4.930828954928094e+04, -1.032386046076673e+04, -1.112957150086575e+04, 4.489159340599222e+04
419, 2.467325000000000e-01, -5.343920000000000e-04, -2.128611980304292e-03, 4.159630730605640e-02, -4.310808193137379e-01, -2.090924854920805e+00, -4.652229854201823e+02, -1.134002748789945e+03, -5.170189938904443e+04, -1.057289543466725e+04, -8.732136566081961e+03, 4.468328325351659e+04
420, 2.485345000000000e-01, -4.176267000000000e-04, -2.162604441669285e-03, 4.184634008337968e-02, -4.367224571507746e-01, -2.099417162096779e+00, -4.701296272554958e+02, -1.137973821188629e+03, -4.541655422583356e+04, -8.910734686169852e+03, -4.275008966714375e+03, 3.749370169674429e+04
421, 2.495362000000000e-01, -3.807847000000000e-04, -2.177538885288439e-03, 4.198542837265158e-02, -4.400112987033657e-01, -2.104015606958689e+00, -4.729631417756884e+02, -1.139942483769442e+03, -2.584613736120202e+04, -1.468798855143612e+03, -1.313215452891242e+03, 2.451841699502249e+04
422, 2.500000000000000e-01, -3.150000000000000e-04, -2.191218433750206e-03, 4.204933791190690e-02, -4.413218969279149e-01, -2.106312452557131e+00, -4.742021802845720e+02, -1.140983288795379e+03, -3.012748878977660e+03, 1.116600682785870e+04, -1.266749096828698e+04, 2.903271298243885e+04
