"PointID","x","y","Displacement_x","Displacement_y","Velocity_x","Velocity_y","Acceleration_x","Acceleration_y","Sxx","Syy","Sxy","Von_Mises_Stress"
0, -1.990233000000000e-01, 1.178851000000000e-02, 0.000000000000000e+00, 0.000000000000000e+00, 0.000000000000000e+00, 0.000000000000000e+00, 0.000000000000000e+00, 0.000000000000000e+00, -7.866318986379800e+06, -2.744007909751941e+06, 1.566285092255628e+06, 6.004254052472575e+06
1, -1.905404000000000e-01, 1.243298000000000e-02, -8.342589952046618e-05, 5.221610358900074e-05, 6.794113195580312e-03, -3.060009068183541e-03, -2.212091667440242e+00, 2.263932695662111e+00, -5.732289367683464e+06, 1.890283352276132e+05, -3.133699226280724e+05, 5.954393854326384e+06
2, -1.814989000000000e-01, 1.300915000000000e-02, -1.561576523142025e-04, 1.424679815218464e-04, 1.396893831783559e-02, -1.023000291568686e-02, -3.289850748719827e+00, 4.756548908993716e+00, -4.815074175180353e+06, -2.524022998599099e+05, -2.083511288159223e+05, 4.581660770218114e+06
3, -1.719248000000000e-01, 1.351448000000000e-02, -2.243920803041613e-04, 2.845506444099265e-04, 2.165225054682189e-02, -2.312830928487507e-02, -3.730911061138364e+00, 7.593959795217148e+00, -4.026216312533945e+06, -1.316240181456681e+05, -1.711569041496589e+05, 3.909607126408090e+06
4, -1.618466000000000e-01, 1.394718000000000e-02, -2.867822900365714e-04, 4.746962346177557e-04, 2.974747641233689e-02, -4.192316641193453e-02, -3.548579905319628e+00, 1.043878936178310e+01, -3.368890407492505e+06, -1.193520866235323e+05, -1.285534926320915e+05, 3.259693743385654e+06
5, -1.512935000000000e-01, 1.430588000000000e-02, -3.432767851272692e-04, 7.099723638502407e-04, 3.823954560886073e-02, -6.688210371917246e-02, -2.817039715615249e+00, 1.300593556857622e+01, -2.816041202224080e+06, -8.823168095486365e+04, -9.647801941208611e+04, 2.734625535104524e+06
6, -1.402968000000000e-01, 1.459006000000000e-02, -3.939596379655151e-04, 9.870972096833138e-04, 4.710075286298274e-02, -9.820435561352329e-02, -1.631927268972859e+00, 1.508082633149300e+01, -2.357801285113806e+06, -6.690784684634648e+04, -7.205145743043238e+04, 2.295421180430359e+06
7, -1.288884000000000e-01, 1.479966000000000e-02, -4.389207568042691e-04, 1.302815683401168e-03, 5.629309332283346e-02, -1.360448170584396e-01, -9.633780730937147e-02, 1.653192491594054e+01, -1.974046925152893e+06, -4.824651036732028e+04, -5.335920436447900e+04, 1.928755053486556e+06
8, -1.171021000000000e-01, 1.493550000000000e-02, -4.783163455381454e-04, 1.653793973071719e-03, 6.577723948722201e-02, -1.804933599162361e-01, 1.682089696941755e+00, 1.732688083542821e+01, -1.653332102895685e+06, -3.299998394467277e+04, -3.931666558068474e+04, 1.622239001033390e+06
9, -1.049722000000000e-01, 1.499882000000000e-02, -5.123700036100291e-04, 2.036727675263024e-03, 7.552070027785394e-02, -2.315627368154752e-01, 3.605924301130338e+00, 1.757290477706972e+01, -1.387125200169812e+06, -2.033281350489708e+04, -2.898153460742465e+04, 1.368020886404144e+06
10, -9.253454000000000e-02, 1.499170000000000e-02, -5.413976995058517e-04, 2.448360030017360e-03, 8.551856382572358e-02, -2.891819392569543e-01, 5.624599419362815e+00, 1.753471535821117e+01, -1.169889845482217e+06, -1.002791968465317e+04, -2.169988479410301e+04, 1.160673609123229e+06
11, -7.982535000000000e-02, 1.491658000000000e-02, -5.658065382544402e-04, 2.885588433898222e-03, 9.581380518479157e-02, -3.532699234849710e-01, 7.773466714657173e+00, 1.750364712329761e+01, -9.982786226110650e+05, -9.794835883393243e+02, -1.691597633317408e+04, 9.978728244203707e+05
12, -6.688208000000000e-02, 1.477656000000000e-02, -5.861228516259215e-04, 3.345483711540157e-03, 1.064578509743999e-01, -4.239117281590979e-01, 1.010755041069277e+01, 1.749265482816254e+01, -8.717895682597967e+05, 3.890537681344256e+03, -1.430234453689089e+04, 8.761471772357060e+05
13, -5.374259000000000e-02, 1.457506000000000e-02, -6.029691431445952e-04, 3.825501180296989e-03, 1.174889170385066e-01, -5.010666619430864e-01, 1.263540667695914e+01, 1.762247181950413e+01, -7.896781188656812e+05, 6.512170125048522e+03, -1.290071165249858e+04, 7.966082410618819e+05
14, -4.044550000000000e-02, 1.431595000000000e-02, -6.170890429217865e-04, 4.323420209782812e-03, 1.290292295882135e-01, -5.845609940597289e-01, 1.544660855073005e+01, 1.829678728642101e+01, -7.549822925630657e+05, -1.496915420550268e+04, -1.128081417027382e+04, 7.403569895767762e+05
15, -2.702974000000000e-02, 1.400332000000000e-02, -6.291151403348371e-04, 4.838367511672377e-03, 1.413045357256636e-01, -6.745050232395702e-01, 1.874436812997931e+01, 1.954721414190237e+01, -7.410387490441620e+05, -3.677423215099789e+04, -9.610502562785623e+03, 7.045267608776825e+05
16, -1.353473000000000e-02, 1.364154000000000e-02, -6.392132271248736e-04, 5.369726108667755e-03, 1.545199751862788e-01, -7.713905706196191e-01, 2.271765662727543e+01, 2.112488691773450e+01, -7.199364215804043e+05, -3.385856088133126e+04, -7.711797197852473e+03, 6.862512063417447e+05
17, -9.637083000000000e-13, 1.323506000000000e-02, -6.473203549640586e-04, 5.915888343694618e-03, 1.687599341336943e-01, -8.758249462880426e-01, 2.750208838356996e+01, 2.264123213789929e+01, -6.947974373996325e+05, -2.925222027052638e+04, -5.745579143833776e+03, 6.656444116510116e+05
18, 1.353473000000000e-02, 1.278846000000000e-02, -6.534330891632419e-04, 6.475119129789366e-03, 1.839196229915807e-01, -9.885566520412369e-01, 3.309007429101928e+01, 2.338377146915198e+01, -6.681264208356683e+05, -2.655753206326638e+04, -4.338105632434250e+03, 6.416275521535585e+05
19, 2.702974000000000e-02, 1.230631000000000e-02, -6.575682790315868e-04, 7.045617316760473e-03, 1.996616097021216e-01, -1.110070438331586e+00, 3.925380270455685e+01, 2.276346094840241e+01, -6.399340027502205e+05, -2.540048410719212e+04, -3.209950859855897e+03, 6.145670514060056e+05
20, 4.044550000000000e-02, 1.179317000000000e-02, -6.597546158501576e-04, 7.625469358363408e-03, 2.155626914942708e-01, -1.240118356762639e+00, 4.568312174253384e+01, 2.076515228426209e+01, -6.094779815448632e+05, -2.406735763517416e+04, -2.273300172738200e+03, 5.854282792631672e+05
21, 5.374259000000000e-02, 1.125353000000000e-02, -6.600279108557680e-04, 8.212586674130561e-03, 2.313463985666859e-01, -1.377831855311925e+00, 5.218663319724137e+01, 1.778620609512731e+01, -5.766630092153877e+05, -2.251111488624768e+04, -1.486652862106530e+03, 5.541598709176840e+05
22, 6.688208000000000e-02, 1.069178000000000e-02, -6.584356151583645e-04, 8.804727658765325e-03, 2.469158595660050e-01, -1.522389347244765e+00, 5.871518196227707e+01, 1.411578505106024e+01, -5.416286818550956e+05, -2.097134699679226e+04, -8.591612449288004e+02, 5.206601703356332e+05
23, 7.982535000000000e-02, 1.011222000000000e-02, -6.550377495157135e-04, 9.399502886017068e-03, 2.622224760561210e-01, -1.673026207996178e+00, 6.525955753143889e+01, 9.921159373876833e+00, -5.044248559307439e+05, -1.943893493910162e+04, -3.863716148481326e+02, 4.849865366092243e+05
24, 9.253454000000000e-02, 9.518999000000000e-03, -6.499044122467235e-04, 9.994398670861784e-03, 2.772069279261966e-01, -1.828921364498183e+00, 7.180355988616105e+01, 5.339479129608264e+00, -4.650896650361620e+05, -1.784194522091842e+04, -5.447315670327953e+01, 4.472477330845109e+05
25, 1.049722000000000e-01, 8.916182000000000e-03, -6.431191858392042e-04, 1.058676491971249e-02, 2.917959404481493e-01, -1.989153168190039e+00, 7.832075663585236e+01, 5.064419352705158e-01, -4.237455431511143e+05, -1.618324423314097e+04, 1.458121755540487e+02, 4.075624032514108e+05
26, 1.171021000000000e-01, 8.307683999999999e-03, -6.347785706499286e-04, 1.117386390071722e-02, 3.059142645079902e-01, -2.152726643064554e+00, 8.478302525676544e+01, -4.459373031570863e+00, -3.805956737859342e+05, -1.449141615137489e+04, 2.186337343509949e+02, 3.661045187661455e+05
27, 1.288884000000000e-01, 7.697351000000000e-03, -6.249953866853643e-04, 1.175284553977372e-02, 3.194900200333600e-01, -2.318582482803644e+00, 9.116317592912020e+01, -9.470269485915424e+00, -3.358920835445857e+05, -1.276075259006716e+04, 1.655723617066615e+02, 3.231315006328947e+05
28, 1.402968000000000e-01, 7.088912000000000e-03, -6.138987488375163e-04, 1.232082035938076e-02, 3.324561797921788e-01, -2.485620249653364e+00, 9.743434288607278e+01, -1.447161281515270e+01, -2.899553842762382e+05, -1.103561806905342e+04, -7.383680871855177e+00, 2.789197665981125e+05
29, 1.512935000000000e-01, 6.486048000000000e-03, -6.016358334014805e-04, 1.287483122257859e-02, 3.447501115168656e-01, -2.652688534393931e+00, 1.035683377871258e+02, -1.943846916893278e+01, -2.431033102623375e+05, -9.385176603873648e+03, -3.147253439478081e+02, 2.337189812765837e+05
30, 1.618466000000000e-01, 5.892357000000000e-03, -5.883703135545813e-04, 1.341194844288873e-02, 3.563174102073391e-01, -2.818614544620611e+00, 1.095366667393920e+02, -2.437361710280038e+01, -1.955575906138968e+05, -7.702349151934626e+03, -7.705084858525006e+02, 1.878615620025534e+05
31, 1.719248000000000e-01, 5.311408000000000e-03, -5.742821898138056e-04, 1.392922482022196e-02, 3.671125316148044e-01, -2.982197476213469e+00, 1.153106269616971e+02, -2.930471300004319e+01, -1.476666092842970e+05, -6.007820775220459e+03, -1.373162033222365e+03, 1.416854073563583e+05
32, 1.814989000000000e-01, 4.746728000000000e-03, -5.595705094340865e-04, 1.442380108564868e-02, 3.771025175190842e-01, -3.142246487168918e+00, 1.208626254360020e+02, -3.428247149435902e+01, -9.995974832503365e+04, -4.405171144671840e+03, -2.127911708578431e+03, 9.564930346362038e+04
33, 1.905404000000000e-01, 4.201807000000000e-03, -5.444515994858327e-04, 1.489287221689823e-02, 3.862649073971010e-01, -3.297572462856456e+00, 1.261652630461021e+02, -3.937598094491420e+01, -5.305520698398068e+04, -2.904398985451926e+03, -3.042023341705089e+03, 5.051850321368608e+04
34, 1.990233000000000e-01, 3.680033000000000e-03, -5.291567740035079e-04, 1.533382041328872e-02, 3.945898864326498e-01, -3.447032268470393e+00, 1.311920415791857e+02, -4.466764745338651e+01, -7.694655890067957e+03, -1.537512525892488e+03, -4.107268772204032e+03, 1.026591649466815e+04
35, 2.069223000000000e-01, 3.184785000000000e-03, -5.139327719347882e-04, 1.574416742444493e-02, 4.020777493774912e-01, -3.589510208416369e+00, 1.359158480682701e+02, -5.024363266771763e+01, 3.520359780839831e+04, -3.473737347855165e+02, -5.296163652527610e+03, 3.709540369643769e+04
36, 2.142143000000000e-01, 2.719501000000000e-03, -4.990450615073659e-04, 1.612170372288193e-02, 4.087418649361816e-01, -3.723952804816054e+00, 1.403094437759242e+02, -5.618275690152450e+01, 7.446948038624550e+04, 6.104236682584839e+02, -6.539542825551711e+03, 7.500815116198854e+04
37, 2.208774000000000e-01, 2.287439000000000e-03, -4.847609944447588e-04, 1.646449649787390e-02, 4.146010549071464e-01, -3.849355460063419e+00, 1.443445682643091e+02, -6.254014130912606e+01, 1.086354431496110e+05, 1.289597743089602e+03, -7.724843475470225e+03, 1.084519402911854e+05
38, 2.268939000000000e-01, 1.891072000000000e-03, -4.713173848624241e-04, 1.677111014052499e-02, 4.196727575140416e-01, -3.964818902365848e+00, 1.479936006012324e+02, -6.933121792119800e+01, 1.360526096214776e+05, 1.629763006334599e+03, -8.694914837450662e+03, 1.355430111375734e+05
39, 2.322460000000000e-01, 1.533172000000000e-03, -4.589624509566802e-04, 1.704044840032211e-02, 4.239837841711271e-01, -4.069461070709458e+00, 1.512288343744887e+02, -7.650551930868528e+01, 1.550554615995725e+05, 1.588514129489166e+03, -9.107385997354861e+03, 1.545441098347154e+05
40, 2.369133000000000e-01, 1.218487000000000e-03, -4.480257368359674e-04, 1.727169272673150e-02, 4.275983902833674e-01, -4.162349423026109e+00, 1.540254277631228e+02, -8.391618632112124e+01, 1.637274904476313e+05, 1.070168079939873e+03, -8.463148621916444e+03, 1.635356354383156e+05
41, 2.408804000000000e-01, 9.500542000000000e-04, -4.387289668736267e-04, 1.746474178254108e-02, 4.305632082577702e-01, -4.242637964673768e+00, 1.563650509368349e+02, -9.130732521556513e+01, 1.597510336804726e+05, 1.580838457414920e+02, -6.532263690268483e+03, 1.601267982338615e+05
42, 2.441551000000000e-01, 7.221023000000000e-04, -4.308574005268385e-04, 1.762107357634839e-02, 4.327997323254402e-01, -4.309950123730352e+00, 1.582361145916966e+02, -9.835121608609256e+01, 1.428830933209148e+05, -9.535845370479074e+02, -3.496603542767254e+03, 1.440065791641359e+05
43, 2.467325000000000e-01, 5.343920000000000e-04, -4.244085287112962e-04, 1.774185172413248e-02, 4.343198302163996e-01, -4.363651559447124e+00, 1.596389152350859e+02, -1.046055034410043e+02, 1.171447181853273e+05, -2.540746419834006e+03, 1.578042154490242e+03, 1.197270700632013e+05
44, 2.485345000000000e-01, 4.176267000000000e-04, -4.206814809594130e-04, 1.782496439024962e-02, 4.356382932113467e-01, -4.401551101165795e+00, 1.606172909933101e+02, -1.093772306391489e+02, 7.930607459092767e+04, -5.424715709241437e+03, 7.995596392834505e+03, 8.622659144138580e+04
45, 2.495362000000000e-01, 3.807847000000000e-04, -4.199622233395779e-04, 1.787072108809098e-02, 4.369373662954615e-01, -4.422677192144658e+00, 1.612140889560652e+02, -1.121393421485774e+02, 2.907728174527302e+04, -4.047103776087535e+03, 6.497846762942348e+03, 3.558248117243150e+04
46, 2.500000000000000e-01, 3.150000000000000e-04, -4.174433586288244e-04, 1.789191208609551e-02, 4.365041535607130e-01, -4.432570644316873e+00, 1.613453027733596e+02, -1.134652161651292e+02, 9.519993625900517e+03, 8.048339423498319e+03, 2.918821146749779e+03, 6.020285179150805e+03
47, -1.990233000000000e-01, 8.841386000000000e-03, 0.000000000000000e+00, 0.000000000000000e+00, 0.000000000000000e+00, 0.000000000000000e+00, 0.000000000000000e+00, 0.000000000000000e+00, -5.246621235451129e+06, -1.822149228118304e+06, 1.278093897028965e+06, 4.273301366332224e+06
48, -1.905404000000000e-01, 9.324733000000000e-03, -5.572700516662930e-05, 4.256924142867765e-05, 4.641960570217428e-03, -2.289690079147288e-03, -1.403443436047101e+00, 1.970024142791545e+00, -4.131628620905101e+06, 3.409260717959872e+05, -9.217660443475348e+04, 4.476352486659536e+06
49, -1.814989000000000e-01, 9.756861000000000e-03, -1.140099784963641e-04, 1.360217464336895e-04, 1.010819225653257e-02, -9.690595315576266e-03, -2.471067267906569e+00, 4.561570082021291e+00, -3.712780580751830e+06, 1.650051034422583e+04, -4.252102694686083e+04, 3.730250609186607e+06
50, -1.719248000000000e-01, 1.013586000000000e-02, -1.660028956243701e-04, 2.788401326388987e-04, 1.583935624138149e-02, -2.267986805421651e-02, -2.885927502667214e+00, 7.381377139059932e+00, -3.025894398560163e+06, 5.150921463641721e+04, -2.922571940363097e+04, 3.077958669185472e+06
51, -1.618466000000000e-01, 1.046039000000000e-02, -2.139761456166727e-04, 4.701368110056387e-04, 2.199541469142647e-02, -4.162785721605541e-02, -2.779714820206068e+00, 1.019849622465994e+01, -2.533744388126033e+06, 4.609787306627039e+04, -1.330887539389438e+04, 2.579979573037511e+06
52, -1.512935000000000e-01, 1.072941000000000e-02, -2.576080444320287e-04, 7.063822673474138e-04, 2.855356411816887e-02, -6.675449123998346e-02, -2.195146972782243e+00, 1.271126025401122e+01, -2.116258767491442e+06, 4.693630333671360e+04, -2.496764878354821e+03, 2.163200834364359e+06
53, -1.402968000000000e-01, 1.094255000000000e-02, -2.970271775147859e-04, 9.844109540369976e-04, 3.551184530943846e-02, -9.826439633331568e-02, -1.201530053709834e+00, 1.471222541579082e+01, -1.771008516730519e+06, 4.655317759687826e+04, 4.991212331487390e+03, 1.817589106890892e+06
54, -1.288884000000000e-01, 1.109975000000000e-02, -3.323132901132625e-04, 1.300939018533597e-03, 4.285611678652671e-02, -1.363046407529933e-01, 1.273678584237192e-01, 1.607590130067112e+01, -1.482672565874351e+06, 4.612363038031814e+04, 9.706154646741852e+03, 1.528919437849768e+06
55, -1.171021000000000e-01, 1.120162000000000e-02, -3.635930584844898e-04, 1.652635884761726e-03, 5.057321767634251e-02, -1.809583129144730e-01, 1.719123689969968e+00, 1.677980467245366e+01, -1.242200144695944e+06, 4.554099308985574e+04, 1.209592280919963e+04, 1.287968354945218e+06
56, -1.049722000000000e-01, 1.124912000000000e-02, -3.910367542847651e-04, 2.036193503083157e-03, 5.865775710732191e-02, -2.322331364976046e-01, 3.516886838450382e+00, 1.693834840531217e+01, -1.042978122412662e+06, 4.492691776618199e+04, 1.249562283026031e+04, 1.088192050515991e+06
57, -9.253454000000000e-02, 1.124378000000000e-02, -4.148762011934820e-04, 2.448354500550687e-03, 6.712169866583165e-02, -2.900595082804286e-01, 5.494897617350103e+00, 1.680962592130452e+01, -8.807849967323940e+05, 4.436235205069825e+04, 1.113156203335575e+04, 9.254151844732148e+05
58, -7.982535000000000e-02, 1.118743000000000e-02, -4.354152875359744e-04, 2.886011347760535e-03, 7.598784138334638e-02, -3.543697637990952e-01, 7.650219331742303e+00, 1.665992267051716e+01, -7.529414339561354e+05, 4.451190858901246e+04, 8.169526840928716e+03, 7.976207107464346e+05
59, -6.688208000000000e-02, 1.108242000000000e-02, -4.530395951996479e-04, 3.346250462130333e-03, 8.530078313097220e-02, -4.252122495596027e-01, 1.000793684612613e+01, 1.654794498215057e+01, -6.592832264470102e+05, 4.306859993406642e+04, 3.858724270111572e+03, 7.023942248002933e+05
60, -5.374259000000000e-02, 1.093129000000000e-02, -4.682240298869262e-04, 3.826520847399756e-03, 9.513528691698699e-02, -5.025382604764904e-01, 1.262888074834544e+01, 1.662028684068983e+01, -5.974115357400069e+05, 4.091843196389770e+04, -9.405436935494799e+02, 6.383327393754967e+05
61, -4.044550000000000e-02, 1.073696000000000e-02, -4.814471804042833e-04, 4.324717744411318e-03, 1.055946549405165e-01, -5.862067467956360e-01, 1.558716287765960e+01, 1.722475359471669e+01, -5.672783214410862e+05, 1.973576919099165e+04, -3.646809642557084e+03, 5.870594003019469e+05
62, -2.702974000000000e-02, 1.050249000000000e-02, -4.930859635186948e-04, 4.839899431735632e-03, 1.168205105821780e-01, -6.763358063051235e-01, 1.899670044263139e+01, 1.840734199573095e+01, -5.528936989276736e+05, -6.747329335162194e+02, -3.202672802126679e+03, 5.522561134618304e+05
63, -1.353473000000000e-02, 1.023115000000000e-02, -5.033726991799470e-04, 5.371372026958860e-03, 1.289662333824864e-01, -7.733970164886670e-01, 2.300264162772708e+01, 1.993127055688487e+01, -5.371425217301273e+05, 6.198069466217603e+02, -1.252270081697083e+03, 5.377681608883796e+05
64, -9.637083000000000e-13, 9.926297000000001e-03, -5.123436622187932e-04, 5.917634601306442e-03, 1.420990314164057e-01, -8.780133799807289e-01, 2.769251393419632e+01, 2.138223696654867e+01, -5.196664154367532e+05, 3.794990684110599e+03, 6.432037767202928e+02, 5.234629867931691e+05
65, 1.353473000000000e-02, 9.591344000000000e-03, -5.199616637304139e-04, 6.476963565719171e-03, 1.561365453516545e-01, -9.909165943533866e-01, 3.304188750030390e+01, 2.207053489270288e+01, -5.001617407103195e+05, 5.062188854153472e+03, 2.001306871957633e+03, 5.052397845789171e+05
66, 2.702974000000000e-02, 9.229734000000000e-03, -5.262199224651280e-04, 7.047554056799067e-03, 1.708620618046114e-01, -1.112567046137789e+00, 3.891350940901363e+01, 2.142931349587906e+01, -4.792392541808447e+05, 4.879035065690992e+03, 3.050455294038409e+03, 4.841567298850612e+05
67, 4.044550000000000e-02, 8.844876000000000e-03, -5.311287897734799e-04, 7.627484082511005e-03, 1.860022293082639e-01, -1.242721726048598e+00, 4.511195225031383e+01, 1.943024997023642e+01, -4.566628202884870e+05, 4.726175864724664e+03, 3.906032891482333e+03, 4.614551269008350e+05
68, 5.374259000000000e-02, 8.440148000000000e-03, -5.347071242020405e-04, 8.214663360473487e-03, 2.013266695922593e-01, -1.380545603147983e+00, 5.147256760305959e+01, 1.644257997482751e+01, -4.323918456895475e+05, 4.676979737152267e+03, 4.587139624782962e+03, 4.371651010312054e+05
69, 6.688208000000000e-02, 8.018835000000000e-03, -5.369772954332217e-04, 8.806849655247770e-03, 2.167056430051324e-01, -1.525197740546842e+00, 5.791411628221029e+01, 1.276875079180945e+01, -4.064602144273374e+05, 4.511410566552704e+03, 5.085249971244248e+03, 4.110974527033691e+05
70, 7.982535000000000e-02, 7.584165000000000e-03, -5.379687824569171e-04, 9.401652250561974e-03, 2.320738895689647e-01, -1.675896677006494e+00, 6.440953979708620e+01, 8.587899981809016e+00, -3.788943483620709e+05, 4.240365968539084e+03, 5.405199516039189e+03, 3.832871952628092e+05
71, 9.253454000000000e-02, 7.139249000000000e-03, -5.377169976605223e-04, 9.996556247098000e-03, 2.473677481871048e-01, -1.831817995319305e+00, 7.093644432388082e+01, 4.038195447909857e+00, -3.497326837708470e+05, 3.931888773189236e+03, 5.554354547086252e+03, 3.538389934567625e+05
72, 1.049722000000000e-01, 6.687137000000000e-03, -5.362656392281978e-04, 1.058891086241830e-02, 2.625083110499526e-01, -1.992042875446600e+00, 7.746311408476770e+01, -7.484108193773409e-01, -3.190657953579954e+05, 3.588993592780163e+03, 5.537089804191775e+03, 3.228447773882493e+05
73, 1.171021000000000e-01, 6.230763000000000e-03, -5.336660989398453e-04, 1.117597805654664e-02, 2.774091208605854e-01, -2.155578577550624e+00, 8.395402228016358e+01, -5.656337694795070e+00, -2.870415058688417e+05, 3.193948347066907e+03, 5.353409711934637e+03, 2.904328749747351e+05
74, 1.288884000000000e-01, 5.773013000000000e-03, -5.299802940190608e-04, 1.175490774062548e-02, 2.919830478902132e-01, -2.321367009009274e+00, 9.037428642070245e+01, -1.059979367881868e+01, -2.538463412099727e+05, 2.763027563678481e+03, 5.005232677332111e+03, 2.568045512817650e+05
75, 1.402968000000000e-01, 5.316684000000000e-03, -5.252810569196518e-04, 1.232281098808127e-02, 3.061454387340665e-01, -2.488309307774956e+00, 9.669053047648710e+01, -1.552601871112080e+01, -2.197134534915063e+05, 2.268462251678771e+03, 4.497411571001594e+03, 2.221640784653776e+05
76, 1.512935000000000e-01, 4.864536000000000e-03, -5.196530599965014e-04, 1.287673177879205e-02, 3.198134272296550e-01, -2.655256461537358e+00, 1.028694356739300e+02, -2.041218120275664e+01, -1.848797457801984e+05, 1.661719696974578e+03, 3.828761436420900e+03, 1.866985698898612e+05
77, 1.618466000000000e-01, 4.419268000000000e-03, -5.131930569891792e-04, 1.341374168375655e-02, 3.329096281789178e-01, -2.821038661420625e+00, 1.088786245062945e+02, -2.526315672032445e+01, -1.495201443693517e+05, 1.051026730415492e+03, 2.988917906224087e+03, 1.506897876014030e+05
78, 1.719248000000000e-01, 3.983556000000000e-03, -5.060095407882349e-04, 1.393089548218413e-02, 3.453625200382892e-01, -2.984458515114204e+00, 1.146866429676761e+02, -3.010857877509500e+01, -1.138992394338859e+05, 4.329073684655316e+02, 1.974361898917527e+03, 1.144003156117413e+05
79, 1.814989000000000e-01, 3.560046000000000e-03, -4.982253977381132e-04, 1.442533641158537e-02, 3.571106919338255e-01, -3.144328957128834e+00, 1.202642859579167e+02, -3.500094476729601e+01, -7.840799519975300e+04, -2.661614903491973e+02, 7.805738774399560e+02, 7.815742676022979e+04
80, 1.905404000000000e-01, 3.151355000000000e-03, -4.899765973692016e-04, 1.489426221983600e-02, 3.681011582225864e-01, -3.299465001099737e+00, 1.255837425500338e+02, -4.001093413642582e+01, -4.350568341748299e+04, -1.027880071125825e+03, -5.919362100619546e+02, 4.249429762966935e+04
81, 1.990233000000000e-01, 2.760025000000000e-03, -4.814120224958649e-04, 1.533505830123825e-02, 3.782924502228484e-01, -3.448727838789308e+00, 1.306193452376266e+02, -4.522231644903104e+01, -9.747627624182878e+03, -1.847230948006671e+03, -2.129973319690383e+03, 8.975712395754867e+03
82, 2.069223000000000e-01, 2.388589000000000e-03, -4.726935758651448e-04, 1.574524995351058e-02, 3.876522872504720e-01, -3.591006236254947e+00, 1.353460324830035e+02, -5.072238535703718e+01, 2.218206201579946e+04, -2.722999602442062e+03, -3.799830278127060e+03, 2.603875831868124e+04
83, 2.142143000000000e-01, 2.039626000000000e-03, -4.640001420617278e-04, 1.612263147291502e-02, 3.961610547224941e-01, -3.725251209873059e+00, 1.397397524548196e+02, -5.659085355463958e+01, 5.141282551272288e+04, -3.653043347960969e+03, -5.527407052497145e+03, 5.616456915420977e+04
84, 2.208774000000000e-01, 1.715579000000000e-03, -4.555153076012863e-04, 1.646527394652217e-02, 4.038058283845086e-01, -3.850462457872212e+00, 1.437763424366251e+02, -6.288346303255696e+01, 7.685883537259532e+04, -4.610301287011172e+03, -7.192270417843833e+03, 8.272928890734650e+04
85, 2.268939000000000e-01, 1.418304000000000e-03, -4.474050351132047e-04, 1.677174544354447e-02, 4.105769820581378e-01, -3.965744368510734e+00, 1.474329021629704e+02, -6.961591913325924e+01, 9.729704569393439e+04, -5.575319157430809e+03, -8.615638315552766e+03, 1.043055144489019e+05
86, 2.322460000000000e-01, 1.149879000000000e-03, -4.398483499087871e-04, 1.704095334322583e-02, 4.164740552759918e-01, -4.070218346111442e+00, 1.506861867882631e+02, -7.673789618979754e+01, 1.114868986984979e+05, -6.512028021159943e+03, -9.442087271115131e+03, 1.195004550415294e+05
87, 2.369133000000000e-01, 9.138651000000000e-04, -4.330898338280049e-04, 1.727208294605347e-02, 4.215254690337900e-01, -4.162955924618903e+00, 1.535140219163313e+02, -8.410287693877979e+01, 1.179989604390378e+05, -7.412459796293521e+03, -9.165672413020828e+03, 1.267440828148364e+05
88, 2.408804000000000e-01, 7.125407000000000e-04, -4.273006472092230e-04, 1.746503535746243e-02, 4.257506828362674e-01, -4.243114001495220e+00, 1.558987914780794e+02, -9.145508478917611e+01, 1.151442441253943e+05, -8.089708197329956e+03, -7.557121590121329e+03, 1.241573491662535e+05
89, 2.441551000000000e-01, 5.415768000000000e-04, -4.223364894844602e-04, 1.762128766174536e-02, 4.290885409651546e-01, -4.310314053534604e+00, 1.578304283140127e+02, -9.846556856453253e+01, 1.027700741276126e+05, -8.386242457652783e+03, -4.721970856501703e+03, 1.115567781530210e+05
90, 2.467325000000000e-01, 4.007940000000000e-04, -4.182117603709643e-04, 1.774200374272290e-02, 4.315405656982487e-01, -4.363922165268534e+00, 1.593047364194644e+02, -1.046916675433854e+02, 8.372075564065173e+04, -8.676923075799146e+03, 3.427211803188438e+02, 9.240022112212845e+04
91, 2.485345000000000e-01, 3.132200000000000e-04, -4.158989717684737e-04, 1.782507899728058e-02, 4.334490596146821e-01, -4.401763388153515e+00, 1.603373637078885e+02, -1.094456559136212e+02, 5.496566238348844e+04, -9.872691749750011e+03, 6.177899128484003e+03, 6.600513553712418e+04
92, 2.495362000000000e-01, 2.855885000000000e-04, -4.156245297827692e-04, 1.787082198916242e-02, 4.349349106157953e-01, -4.422871554360154e+00, 1.609517271283994e+02, -1.122028653644848e+02, 1.766179854690971e+04, -5.017657692857765e+03, 2.619827347802182e+03, 2.327684937143978e+04
93, 2.501265000000000e-01, 1.963230000000000e-04, -4.121696643324732e-04, 1.789779571229306e-02, 4.342662335818074e-01, -4.435475327600452e+00, 1.611019906729523e+02, -1.138951361556645e+02, 4.088276642519462e+03, 2.855182765927281e+03, 2.097101164691799e+03, 4.371710613512281e+03
94, -1.990233000000000e-01, 5.894257000000000e-03, 0.000000000000000e+00, 0.000000000000000e+00, 0.000000000000000e+00, 0.000000000000000e+00, 0.000000000000000e+00, 0.000000000000000e+00, -3.297153529343787e+06, -1.142752568250184e+06, 1.100508808013237e+06, 3.079922409285646e+06
95, -1.905404000000000e-01, 6.216489000000000e-03, -3.504851412600765e-05, 3.656715595041655e-05, 2.845599595790315e-03, -1.829133345404766e-03, -9.267208625881735e-01, 1.769526068377747e+00, -2.768277638382738e+06, 9.429623211746318e+04, 2.654915857285614e+05, 2.911403835341495e+06
96, -1.814989000000000e-01, 6.504574000000000e-03, -7.426698287156759e-05, 1.307135788948924e-04, 6.364943645654838e-03, -9.322832046483046e-03, -1.748758463342484e+00, 4.347137431069767e+00, -2.509054485522851e+06, 1.068323614392764e+05, 2.010551598123864e+05, 2.646612307320095e+06
97, -1.719248000000000e-01, 6.757240000000000e-03, -1.102865384861072e-04, 2.747735080140330e-04, 1.018256218347912e-02, -2.244106603116593e-02, -2.126511085974265e+00, 7.171207463997587e+00, -2.081431814902111e+06, 4.554604499727432e+04, 1.782742339442109e+05, 2.156655194150365e+06
98, -1.618466000000000e-01, 6.973592000000000e-03, -1.432389436363997e-04, 4.668731095431840e-04, 1.437202959362713e-02, -4.152448257899777e-02, -2.057821456938256e+00, 9.949207813754645e+00, -1.722702481647897e+06, 5.464915124126794e+04, 1.512332745680803e+05, 1.802904556619711e+06
99, -1.512935000000000e-01, 7.152941000000000e-03, -1.736434910906177e-04, 7.039406398786928e-04, 1.898388970801786e-02, -6.681487543547096e-02, -1.592227761068977e+00, 1.240469372786943e+01, -1.442168704624990e+06, 5.143634006241834e+04, 1.310015877813111e+05, 1.516410793129808e+06
100, -1.402968000000000e-01, 7.295031000000000e-03, -2.014801090900245e-04, 9.827060049860600e-04, 2.402760454834489e-02, -9.850580761262381e-02, -7.652932548622329e-01, 1.433012068463855e+01, -1.206816145876619e+06, 4.974585103722417e+04, 1.133773612580764e+05, 1.276857766656679e+06
101, -1.288884000000000e-01, 7.399830000000000e-03, -2.268298885726047e-04, 1.299902775602635e-03, 2.951512386806249e-02, -1.367393707640294e-01, 3.800475520592119e-01, 1.560796810680773e+01, -1.011104196730554e+06, 4.796694214443404e+04, 9.774456931840624e+04, 1.076962246563419e+06
102, -1.171021000000000e-01, 7.467748000000000e-03, -2.497738031352082e-04, 1.652191933455987e-03, 3.545736231865522e-02, -1.815911999405540e-01, 1.805007353672110e+00, 1.622498077753855e+01, -8.480344927355465e+05, 4.633903369491798e+04, 8.332550089735053e+04, 9.097673115576545e+05
103, -1.049722000000000e-01, 7.499411000000000e-03, -2.704176624898293e-04, 2.036264712338020e-03, 4.187099912044265e-02, -2.330645281728669e-01, 3.484393418024021e+00, 1.630157162097546e+01, -7.131355797444677e+05, 4.480038308080459e+04, 6.954283206821783e+04, 7.705918152382273e+05
104, -9.253454000000000e-02, 7.495851000000000e-03, -2.889038641891078e-04, 2.448861552192037e-03, 4.877843716759148e-02, -2.910940860669408e-01, 5.405998585068806e+00, 1.608474366799700e+01, -6.034201942102131e+05, 4.352429575046290e+04, 5.593712159536024e+04, 6.565462812170790e+05
105, -7.982535000000000e-02, 7.458289000000000e-03, -3.054209428616497e-04, 2.886873631393822e-03, 5.620002288599533e-02, -3.556198592391859e-01, 7.556094251784973e+00, 1.582273329228218e+01, -5.171543158872107e+05, 4.273515282562881e+04, 4.199414377959185e+04, 5.661539098360708e+05
106, -6.688208000000000e-02, 7.388282000000000e-03, -3.202137480424422e-04, 3.347395901929065e-03, 6.417939203822871e-02, -4.266584486680001e-01, 9.950269275826273e+00, 1.561591174337768e+01, -4.539280098526301e+05, 4.123185414429554e+04, 2.775076785859894e+04, 4.982606861678144e+05
107, -5.374259000000000e-02, 7.287529000000000e-03, -3.335822065434294e-04, 3.827889336893138e-03, 7.279543451661624e-02, -5.041550358737160e-01, 1.265386532387175e+01, 1.563014154206485e+01, -4.114374712977095e+05, 3.756575422335723e+04, 1.358727549191363e+04, 4.498248022836164e+05
108, -4.044550000000000e-02, 7.157976000000000e-03, -3.457899793731772e-04, 4.326338540399896e-03, 8.213101591618376e-02, -5.880000281023827e-01, 1.572378287995251e+01, 1.616555022578491e+01, -3.891238880060490e+05, 1.862035805302545e+04, 4.084780319833120e+03, 4.078260804746653e+05
109, -2.702974000000000e-02, 7.001662000000000e-03, -3.570458603755941e-04, 4.841733806343573e-03, 9.227637059309739e-02, -6.783176500150199e-01, 1.922156034307567e+01, 1.727663470962858e+01, -3.778277751944556e+05, 7.421659324377288e+02, 3.109670591997623e+03, 3.786210249439173e+05
110, -1.353473000000000e-02, 6.820770000000000e-03, -3.675534438814061e-04, 5.373308997562519e-03, 1.033386208728830e-01, -7.755617972144324e-01, 2.324052673786698e+01, 1.873799590393290e+01, -3.671493925221133e+05, 1.009077297089962e+03, 5.794982178184928e+03, 3.683408559655026e+05
111, -9.637083000000000e-13, 6.617531000000000e-03, -3.773861376515305e-04, 5.919651444519959e-03, 1.153714016106013e-01, -8.803641684503167e-01, 2.783277330036125e+01, 2.011675378343529e+01, -3.559357235081324e+05, 4.163016975731245e+03, 7.721126238582747e+03, 3.604296964175309e+05
112, 1.353473000000000e-02, 6.394229000000000e-03, -3.865060254321786e-04, 6.479059725550476e-03, 1.283270212530638e-01, -9.934382963834064e-01, 3.297531424646989e+01, 2.074587635217978e+01, -3.431433400275834e+05, 5.258967303159097e+03, 8.932091463604113e+03, 3.488599959654904e+05
113, 2.702974000000000e-02, 6.153156000000000e-03, -3.948855400793613e-04, 7.049722489407732e-03, 1.420835047779897e-01, -1.115218347449356e+00, 3.859322183425111e+01, 2.008271042220153e+01, -3.291225053624127e+05, 5.073055974099102e+03, 9.831067859437666e+03, 3.347734648953732e+05
114, 4.044550000000000e-02, 5.896584000000000e-03, -4.025176096772484e-04, 7.629710081758494e-03, 1.564775222833485e-01, -1.245469439851113e+00, 4.457141825363456e+01, 1.808441433994645e+01, -3.139760244265669e+05, 4.885624360694114e+03, 1.059633206492116e+04, 3.195651421545393e+05
115, 5.374259000000000e-02, 5.626765000000000e-03, -4.094012859663123e-04, 8.216930469697539e-03, 1.713320766280748e-01, -1.383389299595377e+00, 5.077984414761195e+01, 1.509204804152409e+01, -2.976976310702051e+05, 4.810643327047166e+03, 1.117760222855317e+04, 3.033331687190214e+05
116, 6.688208000000000e-02, 5.345890000000000e-03, -4.155343310381245e-04, 8.809141195413827e-03, 1.865127311525328e-01, -1.528122823220790e+00, 5.712711512525915e+01, 1.141765744965420e+01, -2.802836501863352e+05, 4.632385783885906e+03, 1.155503195954771e+04, 2.858517493515284e+05
117, 7.982535000000000e-02, 5.056110000000000e-03, -4.209156799187362e-04, 9.403950543137201e-03, 2.019398684184948e-01, -1.678871250888976e+00, 6.357037301237835e+01, 7.252617569140284e+00, -2.617378219248366e+05, 4.355061249756562e+03, 1.174029571395617e+04, 2.671268624642086e+05
118, 9.253454000000000e-02, 4.759500000000000e-03, -4.255460007393378e-04, 9.998842653383813e-03, 2.175420327926292e-01, -1.834806762628270e+00, 7.007826024923638e+01, 2.736285849140870e+00, -2.420889946464917e+05, 4.040368946950848e+03, 1.173253445512551e+04, 2.472453701930046e+05
119, 1.049722000000000e-01, 4.458091000000000e-03, -4.294287635453507e-04, 1.059116630544096e-02, 2.332326445858607e-01, -1.995013311249870e+00, 7.661228499227352e+01, -2.002976252399776e+00, -2.213992470399949e+05, 3.690902023947705e+03, 1.152645198015663e+04, 2.262675663603410e+05
120, 1.171021000000000e-01, 4.153842000000000e-03, -4.325704646660959e-04, 1.117818338227083e-02, 2.489142217822906e-01, -2.158500488709976e+00, 8.312970779818573e+01, -6.852536941642711e+00, -1.997673487460790e+05, 3.290262071010649e+03, 1.111523932292719e+04, 2.042708679463825e+05
121, 1.288884000000000e-01, 3.848675000000000e-03, -4.349819164786434e-04, 1.175704400987169e-02, 2.644847627474688e-01, -2.324211512447001e+00, 8.958830621881070e+01, -1.172845451874849e+01, -1.773188671033120e+05, 2.850964118854189e+03, 1.049956050090196e+04, 1.813894461248291e+05
122, 1.402968000000000e-01, 3.544456000000000e-03, -4.366796464465623e-04, 1.232486000505024e-02, 2.798420124956869e-01, -2.491049154275001e+00, 9.594823257132145e+01, -1.657975883449092e+01, -1.542105593407703e+05, 2.345875048728381e+03, 9.680013133683668e+03, 1.577489390323325e+05
123, 1.512935000000000e-01, 3.243024000000000e-03, -4.376860216911889e-04, 1.287867657976779e-02, 2.948827868595760e-01, -2.657866838483525e+00, 1.021709566405267e+02, -2.138563190730622e+01, -1.306060517623792e+05, 1.737271794494706e+03, 8.675192792246045e+03, 1.334758074334445e+05
124, 1.618466000000000e-01, 2.946179000000000e-03, -4.380308951613933e-04, 1.341556667544453e-02, 3.095066560587796e-01, -2.823497775646728e+00, 1.082201510795327e+02, -2.615296983613928e+01, -1.066285497215412e+05, 1.117983731673312e+03, 7.480138557601284e+03, 1.087801698957504e+05
125, 1.719248000000000e-01, 2.655704000000000e-03, -4.377511116822899e-04, 1.393258710705314e-02, 3.236161700910734e-01, -2.986748001964828e+00, 1.140615813991745e+02, -3.091331383889531e+01, -8.246131883009252e+04, 4.869113790473325e+02, 6.077981239639148e+03, 8.383421925816500e+04
126, 1.814989000000000e-01, 2.373364000000000e-03, -4.368934010350012e-04, 1.442688365161836e-02, 3.371214761528391e-01, -3.146434228559837e+00, 1.196644161954918e+02, -3.572088737510205e+01, -5.837060556188496e+04, -2.207582808651905e+02, 4.461858394541508e+03, 5.883058269418793e+04
127, 1.905404000000000e-01, 2.100903000000000e-03, -4.355134508176698e-04, 1.489565683632442e-02, 3.499391067485893e-01, -3.301375566807809e+00, 1.250004183250432e+02, -4.064790901776973e+01, -3.466826155593922e+04, -9.899524564844953e+02, 2.641432614264410e+03, 3.409013301266532e+04
128, 1.990233000000000e-01, 1.840017000000000e-03, -4.336777311413362e-04, 1.533629520230019e-02, 3.619959471836195e-01, -3.450437481763257e+00, 1.300447329855028e+02, -4.577946587074564e+01, -1.173273369113299e+04, -1.812043675918505e+03, 6.322505483322398e+02, 1.000095262469741e+04
129, 2.069223000000000e-01, 1.592393000000000e-03, -4.314633446139827e-04, 1.574632751277332e-02, 3.732271761730991e-01, -3.592513122534146e+00, 1.347743352980730e+02, -5.120394476893807e+01, 9.970954682516727e+03, -2.685775556848577e+03, -1.528764383833709e+03, 1.302080268329023e+04
130, 2.142143000000000e-01, 1.359751000000000e-03, -4.289626261154786e-04, 1.612355176027473e-02, 3.835801916485152e-01, -3.726557904480375e+00, 1.391683326671984e+02, -5.700192333715313e+01, 2.985277340061887e+04, -3.606674170121222e+03, -3.767259328965953e+03, 3.429728273705992e+04
131, 2.208774000000000e-01, 1.143720000000000e-03, -4.262754994395088e-04, 1.646604275959241e-02, 3.930103410876524e-01, -3.851575712797410e+00, 1.432066334284609e+02, -6.322974932531542e+01, 4.718111616973158e+04, -4.544134239918556e+03, -5.959921414798962e+03, 5.308092108303442e+04
132, 2.268939000000000e-01, 9.455361000000000e-04, -4.234970301986222e-04, 1.677237204586351e-02, 4.014808369283870e-01, -3.966674496901000e+00, 1.468710159701054e+02, -6.990340590921119e+01, 6.112841666894271e+04, -5.479958325876701e+03, -7.905316185267184e+03, 6.845912441308810e+04
133, 2.322460000000000e-01, 7.665862000000001e-04, -4.207372573935111e-04, 1.704145035763466e-02, 4.089639784368744e-01, -4.070979030982322e+00, 1.501426701357278e+02, -7.697273165800391e+01, 7.085166874463887e+04, -6.381986655156352e+03, -9.237911083770872e+03, 7.941280457949426e+04
134, 2.369133000000000e-01, 6.092434000000000e-04, -4.181557940967438e-04, 1.727246654118872e-02, 4.154522963921330e-01, -4.163564854035210e+00, 1.530020539189007e+02, -8.429159723827070e+01, 7.538378079255240e+04, -7.216827950598650e+03, -9.447731929009398e+03, 8.473428538170847e+04
135, 2.408804000000000e-01, 4.750271000000000e-04, -4.158732277849591e-04, 1.746532388658674e-02, 4.209380368638568e-01, -4.243591688893219e+00, 1.554322458834495e+02, -9.160438862108515e+01, 7.360925701265167e+04, -7.828822915578276e+03, -8.318348610790981e+03, 8.312003703583969e+04
136, 2.441551000000000e-01, 3.610512000000000e-04, -4.138158350608709e-04, 1.762149831633868e-02, 4.253773328643521e-01, -4.310679018991604e+00, 1.574246533335831e+02, -9.858097465748938e+01, 6.541581109775266e+04, -8.167584754922861e+03, -5.849881201030439e+03, 7.450772165001574e+04
137, 2.467325000000000e-01, 2.671960000000000e-04, -4.120149963739261e-04, 1.774215362854617e-02, 4.287613179070504e-01, -4.364193378856855e+00, 1.589705530814272e+02, -1.047784906273633e+02, 5.268583020893214e+04, -8.352113153960370e+03, -8.898133789742496e+02, 6.106388131595698e+04
138, 2.485345000000000e-01, 2.088133000000000e-04, -4.111159807504370e-04, 1.782519237135747e-02, 4.312599703075726e-01, -4.401976018318502e+00, 1.600575885424993e+02, -1.095144562701487e+02, 3.291761371162774e+04, -9.439367153999643e+03, 4.002814579888976e+03, 4.310688954558205e+04
139, 2.495362000000000e-01, 1.903924000000000e-04, -4.112851311737766e-04, 1.787092196614980e-02, 4.329329196695546e-01, -4.423066150968002e+00, 1.606898629539329e+02, -1.122667147444189e+02, 7.853446634712955e+03, -2.332089814229220e+03, -2.018612167965452e+03, 1.095647448275960e+04
140, 2.502041000000000e-01, 1.235855000000000e-04, -4.089389685218690e-04, 1.790140460239099e-02, 4.328944101100473e-01, -4.437257069117116e+00, 1.609522267387477e+02, -1.141588705388066e+02, -3.546066023348566e+03, -6.432552530292705e+02, 2.914678113400327e+02, 2.960764142661671e+03
141, -1.990233000000000e-01, 2.947129000000000e-03, 0.000000000000000e+00, 0.000000000000000e+00, 0.000000000000000e+00, 0.000000000000000e+00, 0.000000000000000e+00, 0.000000000000000e+00, -1.616098430730163e+06, -5.575396542998368e+05, 1.004788642210076e+06, 2.271331667814092e+06
142, -1.905404000000000e-01, 3.108244000000000e-03, -1.718706541818017e-05, 3.334162869598183e-05, 1.189197881949590e-03, -1.620288853439525e-03, -5.831685404629627e-01, 1.630909603131201e+00, -1.400989558346114e+06, 9.627177196276039e+03, 3.946592172916179e+05, 1.616435326811809e+06
143, -1.814989000000000e-01, 3.252287000000000e-03, -3.713464105100770e-05, 1.273849614334282e-04, 2.756589252037046e-03, -9.168745813875136e-03, -1.137180874655223e+00, 4.156232937120885e+00, -1.283028392703167e+06, 8.258491038649229e+04, 3.855177808439367e+05, 1.568246004606033e+06
144, -1.719248000000000e-01, 3.378620000000000e-03, -5.619131240149883e-05, 2.723386793809542e-04, 4.618310068884803e-03, -2.240772284572329e-02, -1.418414010197293e+00, 6.965207559510173e+00, -1.077315573092917e+06, 4.537858852834602e+04, 3.084063509690128e+05, 1.280976225310431e+06
145, -1.618466000000000e-01, 3.486796000000000e-03, -7.395648844145130e-05, 4.650811220887147e-04, 6.842391687557776e-03, -4.162193468355765e-02, -1.368105751434674e+00, 9.699434836681061e+00, -8.914117720582183e+05, 4.598248490093907e+04, 2.592635149989292e+05, 1.071250798748085e+06
146, -1.512935000000000e-01, 3.576470000000000e-03, -9.083769744025923e-05, 7.027372577406497e-04, 9.497185349778052e-03, -6.706765397998485e-02, -1.000120975615241e+00, 1.209049573068886e+01, -7.474095371737245e+05, 4.672854298103316e+04, 2.189897983237805e+05, 9.069076124013099e+05
147, -1.402968000000000e-01, 3.647516000000000e-03, -1.068818091887246e-04, 9.820632665611272e-04, 1.261983011246450e-02, -9.893301975399789e-02, -3.226427550907163e-01, 1.393815553819763e+01, -6.280318694624800e+05, 4.503162118399158e+04, 1.855959019161654e+05, 7.686337344102927e+05
148, -1.288884000000000e-01, 3.699915000000000e-03, -1.221141505648545e-04, 1.299767642047532e-03, 1.624497802629149e-02, -1.373525150054503e-01, 6.550807047859513e-01, 1.513079426370522e+01, -5.281324346862169e+05, 4.377512505899876e+04, 1.568812142434622e+05, 6.523228636371255e+05
149, -1.171021000000000e-01, 3.733874000000000e-03, -1.365713542548183e-04, 1.652510877440491e-03, 2.040697636320446e-02, -1.823953283521344e-01, 1.925932395798366e+00, 1.566366169010978e+01, -4.450308495968798e+05, 4.230338218317993e+04, 1.315792767003928e+05, 5.538475220605894e+05
150, -1.049722000000000e-01, 3.749705000000000e-03, -1.502863329389778e-04, 2.036980202857946e-03, 2.514098758361234e-02, -2.340610618628796e-01, 3.490502283350719e+00, 1.566082807170056e+01, -3.762264525776975e+05, 4.080309637181848e+04, 1.085522104541223e+05, 4.701573930876136e+05
151, -9.253454000000000e-02, 3.747926000000000e-03, -1.633058842887889e-04, 2.449913923944197e-03, 3.047937739640053e-02, -2.922888454471315e-01, 5.348563838692484e+00, 1.535804595649419e+01, -3.202487548307294e+05, 3.942743640394854e+04, 8.691400212148248e+04, 3.994785821545091e+05
152, -7.982535000000000e-02, 3.729145000000000e-03, -1.756976488622640e-04, 2.888202289474593e-03, 3.644719841475312e-02, -3.570219983937102e-01, 7.488401344707223e+00, 1.499202012570636e+01, -2.762510190583519e+05, 3.833954430247867e+04, 6.584620598949172e+04, 3.410426863730215e+05
153, -6.688208000000000e-02, 3.694141000000000e-03, -1.875592699064060e-04, 3.348946725948209e-03, 4.308763258953129e-02, -4.282525710037614e-01, 9.921621620881288e+00, 1.469578053141561e+01, -2.438792549534703e+05, 3.677133095386703e+04, 4.507758569114258e+04, 2.947756881038545e+05
154, -5.374259000000000e-02, 3.643765000000000e-03, -1.990112524783167e-04, 3.829627320499621e-03, 5.047044690516988e-02, -5.059216061479271e-01, 1.270101683841790e+01, 1.464875580576442e+01, -2.215164376623906e+05, 3.246958771898963e+04, 2.537507575420149e+04, 2.590067160657364e+05
155, -4.044550000000000e-02, 3.578988000000000e-03, -2.101339405221619e-04, 4.328290856823029e-03, 5.865668148383552e-02, -5.899452984670797e-01, 1.586277866721504e+01, 1.511478950288878e+01, -2.092811959235913e+05, 1.674487547942672e+04, 1.214033397767307e+04, 2.273264960145208e+05
156, -2.702974000000000e-02, 3.500831000000000e-03, -2.210000987544196e-04, 4.843868881844947e-03, 6.769995304394595e-02, -6.804531977890214e-01, 1.943056938268774e+01, 1.615170459213306e+01, -2.030657764414262e+05, 2.167225471393875e+03, 9.642777588578760e+03, 2.061371332696726e+05
157, -1.353473000000000e-02, 3.410385000000000e-03, -2.317463206992572e-04, 5.375534105221773e-03, 7.766928892964731e-02, -7.778847690089943e-01, 2.345010783193202e+01, 1.754341545018684e+01, -1.976111153751259e+05, 1.748708403367432e+03, 1.238066882796134e+04, 2.008916702591288e+05
158, -9.637083000000000e-13, 3.308766000000000e-03, -2.424447599215213e-04, 5.921939063486903e-03, 8.860903721879712e-02, -8.828738533794163e-01, 2.794503438059797e+01, 1.884629352531525e+01, -1.922788706055625e+05, 4.511360428763939e+03, 1.451247456940578e+04, 1.989191863623370e+05
159, 1.353473000000000e-02, 3.197115000000000e-03, -2.530636349866911e-04, 6.481407499967309e-03, 1.005087573142967e-01, -9.961156744199859e-01, 3.290048796879960e+01, 1.941408144290955e+01, -1.860455774990938e+05, 5.482519706512680e+03, 1.562837522036845e+04, 1.940618367101444e+05
160, 2.702974000000000e-02, 3.076578000000000e-03, -2.635628391842294e-04, 7.052122405267968e-03, 1.133252082652669e-01, -1.118020254663252e+00, 3.828820628162559e+01, 1.872643819816045e+01, -1.789951276579691e+05, 5.295877438097034e+03, 1.636928771160627e+04, 1.871763576952486e+05
161, 4.044550000000000e-02, 2.948292000000000e-03, -2.739179529664786e-04, 7.632146993567106e-03, 1.269831434833837e-01, -1.248360910077418e+00, 4.405377719485607e+01, 1.672756698204211e+01, -1.713156500028821e+05, 5.091068686642246e+03, 1.698422267954377e+04, 1.796473926304479e+05
162, 5.374259000000000e-02, 2.813383000000000e-03, -2.841071159604842e-04, 8.219387675245198e-03, 1.413615710034748e-01, -1.386364019187960e+00, 5.010449204602776e+01, 1.373330195847853e+01, -1.630395320251361e+05, 4.983637272715968e+03, 1.741174426081428e+04, 1.715938832642663e+05
163, 6.688208000000000e-02, 2.672945000000000e-03, -2.941030132303205e-04, 8.811601965565630e-03, 1.563373941851902e-01, -1.531165135641918e+00, 5.635176971627401e+01, 1.006165578323413e+01, -1.541473076333517e+05, 4.788513774052422e+03, 1.760908646451335e+04, 1.627910164318200e+05
164, 7.982535000000000e-02, 2.528055000000000e-03, -3.038743225965197e-04, 9.406397460449896e-03, 1.718207707886075e-01, -1.681950113436623e+00, 6.274021247199260e+01, 5.914802771684322e+00, -1.446283519465486e+05, 4.501009329945309e+03, 1.758770200466344e+04, 1.532216546117240e+05
165, 9.253454000000000e-02, 2.379750000000000e-03, -3.133868160233291e-04, 1.000125761377769e-02, 1.877299127379633e-01, -1.837887787268298e+00, 6.922752905815439e+01, 1.433343440191663e+00, -1.344962508819473e+05, 4.173891296553301e+03, 1.734419799991958e+04, 1.429429716664909e+05
166, 1.049722000000000e-01, 2.229046000000000e-03, -3.226038208373831e-04, 1.059353100453832e-02, 2.039691006223540e-01, -1.998064644987077e+00, 7.576728877103548e+01, -3.257643233874887e+00, -1.237840312461453e+05, 3.809839366726018e+03, 1.686813955154349e+04, 1.319785298663974e+05
167, 1.171021000000000e-01, 2.076921000000000e-03, -3.314866044019765e-04, 1.118047967298245e-02, 2.204297389784753e-01, -2.161492564750934e+00, 8.230958868953178e+01, -8.048316309781228e+00, -1.125431873805854e+05, 3.394803069945661e+03, 1.614896368668178e+04, 1.203527055878782e+05
168, 1.288884000000000e-01, 1.924338000000000e-03, -3.399950963000321e-04, 1.175925418121905e-02, 2.369953389092807e-01, -2.327116168910560e+00, 8.880513275337282e+01, -1.285653538923759e+01, -1.008385836527751e+05, 2.937510695835669e+03, 1.518690268093696e+04, 1.081297637582399e+05
169, 1.402968000000000e-01, 1.772228000000000e-03, -3.480893051826701e-04, 1.232696727322867e-02, 2.535460309945635e-01, -2.493839955806036e+00, 9.520764163406756e+01, -1.763306215769973e+01, -8.875349195748329e+04, 2.414345135202298e+03, 1.398375161410762e+04, 9.536118579893334e+04
170, 1.512935000000000e-01, 1.621512000000000e-03, -3.557295515916048e-04, 1.288066550492614e-02, 2.699582966593056e-01, -2.660519826095611e+00, 1.014733164369943e+02, -2.235900630447600e+01, -7.637997910271375e+04, 1.797912468788631e+03, 1.256924673441231e+04, 8.212019595962811e+04
171, 1.618466000000000e-01, 1.473089000000000e-03, -3.628787037905018e-04, 1.341742331833874e-02, 2.861085961185825e-01, -2.825992041215804e+00, 1.075618306375536e+02, -2.704320546932013e+01, -6.378430338216799e+04, 1.163513532927507e+03, 1.094365722943959e+04, 6.853665775523800e+04
172, 1.719248000000000e-01, 1.327852000000000e-03, -3.695020267886605e-04, 1.393429961878984e-02, 3.018736273603341e-01, -2.989066076669606e+00, 1.134361486010485e+02, -3.171903572439987e+01, -5.106696139037445e+04, 5.115186833866483e+02, 9.086171287406969e+03, 5.468613756132139e+04
173, 1.814989000000000e-01, 1.186682000000000e-03, -3.755699394438126e-04, 1.442844274991797e-02, 3.171350627648972e-01, -3.148562425771389e+00, 1.190637993664299e+02, -3.644239036690726e+01, -3.837259372273693e+04, -2.117504055177244e+02, 6.991336170420353e+03, 4.064191295291924e+04
174, 1.905404000000000e-01, 1.050452000000000e-03, -3.810579992140476e-04, 1.489705602466018e-02, 3.317790100808137e-01, -3.303304265083999e+00, 1.244161078651196e+02, -4.128697378270624e+01, -2.586595640233775e+04, -9.937975647474418e+02, 4.678140862337756e+03, 2.657375195477332e+04
175, 1.990233000000000e-01, 9.200083000000000e-04, -3.859500866448919e-04, 1.533753109112051e-02, 3.457006508686998e-01, -3.452161286947189e+00, 1.294690149553179e+02, -4.633914623961027e+01, -1.374763011077465e+04, -1.823513015361532e+03, 2.169162755028034e+03, 1.268879965703323e+04
176, 2.069223000000000e-01, 7.961963000000000e-04, -3.902387529939285e-04, 1.574740008907330e-02, 3.588027159560321e-01, -3.594030937876352e+00, 1.342015212133574e+02, -5.168834602374466e+01, -2.262949084725184e+03, -2.699055790056424e+03, -4.908406205562833e+02, 1.074191378473677e+03
177, 2.142143000000000e-01, 6.798753000000000e-04, -3.939297167358785e-04, 1.612446458318634e-02, 3.709995815397719e-01, -3.727872941316934e+00, 1.385958718388738e+02, -5.741598908144533e+01, 8.278565065465093e+03, -3.614341740569354e+03, -3.219953289089903e+03, 1.352455651889200e+04
178, 2.208774000000000e-01, 5.718598000000000e-04, -3.970392459387049e-04, 1.646680294499807e-02, 3.822148489668297e-01, -3.852695264876872e+00, 1.426360243899433e+02, -6.357901456649972e+01, 1.749864810647105e+04, -4.533156578930118e+03, -5.884467731114664e+03, 2.497815564868199e+04
179, 2.268939000000000e-01, 4.727680000000000e-04, -3.995916732802256e-04, 1.677298995711012e-02, 3.923845750738911e-01, -3.967609311288252e+00, 1.463084107378835e+02, -7.019368468631399e+01, 2.496431113539925e+04, -5.438396094379957e+03, -8.261143047601385e+03, 3.460217543322095e+04
180, 2.322460000000000e-01, 3.832931000000000e-04, -4.016279556680192e-04, 1.704193945647202e-02, 4.014537471795542e-01, -4.071743139113994e+00, 1.495986308992856e+02, -7.721002736241007e+01, 3.023195268953219e+04, -6.302868359320501e+03, -9.969660302616157e+03, 4.162174498107848e+04
181, 2.369133000000000e-01, 3.046217000000000e-04, -4.032228405020384e-04, 1.727284352856510e-02, 4.093790065183625e-01, -4.164176216437133e+00, 1.524897543898215e+02, -8.448234488198625e+01, 3.279808301884028e+04, -7.071358626102297e+03, -1.049058722668040e+04, 4.505310265144723e+04
182, 2.408804000000000e-01, 2.375136000000000e-04, -4.044463091290080e-04, 1.746560738768309e-02, 4.161253452025127e-01, -4.244071026234082e+00, 1.549655411285803e+02, -9.175523189708201e+01, 3.211534004856175e+04, -7.617192381397695e+03, -9.607690408144557e+03, 4.413507667618569e+04
183, 2.441551000000000e-01, 1.805256000000000e-04, -4.052952868114127e-04, 1.762170554875672e-02, 4.216661318609777e-01, -4.311045019675483e+00, 1.570188394508958e+02, -9.869743176333350e+01, 2.810546650355099e+04, -7.973280011361760e+03, -7.253458240457512e+03, 3.888607174646949e+04
184, 2.467325000000000e-01, 1.335980000000000e-04, -4.058181884736544e-04, 1.774230139328320e-02, 4.259820913569861e-01, -4.364465198074385e+00, 1.586363817901858e+02, -1.048659686832051e+02, 2.172948082817860e+04, -8.051571374731895e+03, -2.248702840728813e+03, 3.011872720046594e+04
185, 2.485345000000000e-01, 1.044067000000000e-04, -4.063326578061580e-04, 1.782530454420334e-02, 4.290709827166289e-01, -4.402188980784593e+00, 1.597779162574136e+02, -1.095836221480517e+02, 1.121263259330034e+04, -9.007081234477690e+03, 2.301859452915209e+03, 2.073719014334244e+04
186, 2.495362000000000e-01, 9.519618000000000e-05, -4.069446512882750e-04, 1.787102118418016e-02, 4.309312189549404e-01, -4.423260936109798e+00, 1.604282969910334e+02, -1.123308337766580e+02, -1.952702186452194e+03, -6.776651766888740e+02, -5.296715790561152e+03, 1.066988809876587e+04
187, 2.502041000000000e-01, 4.696250000000000e-05, -4.054499075528441e-04, 1.790148400096915e-02, 4.312820807275301e-01, -4.437413903258911e+00, 1.607400320198653e+02, -1.142105666504406e+02, -9.695295170931000e+03, -1.178662837324309e+03, -1.208896913000326e+03, 8.853177581573851e+03
188, -1.990233000000000e-01, 0.000000000000000e+00, 0.000000000000000e+00, 0.000000000000000e+00, 0.000000000000000e+00, 0.000000000000000e+00, 0.000000000000000e+00, 0.000000000000000e+00, -4.166958267559242e+04, -1.018458011394019e+04, 9.752783796587568e+05, 1.950810851083607e+06
189, -1.905404000000000e-01, 0.000000000000000e+00, -4.327315051712743e-07, 3.232800303343794e-05, -4.150389986824505e-04, -1.624634494936626e-03, -2.934580457789577e-01, 1.534265496648972e+00, -4.432528035241924e+04, 5.925649578929755e+03, 4.330620832227381e+05, 8.675806750152035e+05
190, -1.814989000000000e-01, 0.000000000000000e+00, -1.374069003304607e-06, 1.263110670338675e-04, -7.822512884238363e-04, -9.242726667890663e-03, -5.852276533505136e-01, 4.002505567349845e+00, -4.659181083424631e+04, 2.496502183986890e+04, 4.572361125708359e+05, 9.172675895603811e+05
191, -1.719248000000000e-01, 0.000000000000000e+00, -3.002953505709805e-06, 2.716882501834012e-04, -8.928351535980521e-04, -2.258431296312498e-02, -7.390430188310563e-01, 6.772970095753586e+00, -4.637671625809230e+04, 3.075388753468340e+04, 3.657317497750612e+05, 7.355188517064331e+05
192, -1.618466000000000e-01, 0.000000000000000e+00, -5.400064385633981e-06, 4.648198678101439e-04, -6.354153269411572e-04, -4.192246577266230e-02, -6.908003300862391e-01, 9.452086372816908e+00, -4.456960051557033e+04, 3.348900632053414e+04, 3.067872979547137e+05, 6.185199518581519e+05
193, -1.512935000000000e-01, 0.000000000000000e+00, -8.644602873401214e-06, 7.028443048645523e-04, 6.064000592584688e-05, -6.751658984241130e-02, -4.103323243752993e-01, 1.177164115893424e+01, -4.250365918687611e+04, 3.514669876000896e+04, 2.601257653376777e+05, 5.260144800852252e+05
194, -1.402968000000000e-01, 0.000000000000000e+00, -1.277710475711311e-05, 9.825325035825870e-04, 1.259137513070926e-03, -9.954892874066437e-02, 1.274584047847543e-01, 1.353806793256204e+01, -4.052069421974510e+04, 3.580767090612862e+04, 2.203749557778427e+05, 4.473102992991925e+05
195, -1.288884000000000e-01, 0.000000000000000e+00, -1.780067723147172e-05, 1.300574773950841e-03, 3.020099336719545e-03, -1.381467055865359e-01, 9.461635763627121e-01, 1.464555393460948e+01, -3.862026040029492e+04, 3.576861885565419e+04, 1.863126808463680e+05, 3.799781119138292e+05
196, -1.171021000000000e-01, 0.000000000000000e+00, -2.369246374882808e-05, 1.653625141940664e-03, 5.399582981935407e-03, -1.833732410970029e-01, 2.069423819690114e+00, 1.509589368882304e+01, -3.682211596288243e+04, 3.521429615301550e+04, 1.562812797724907e+05, 3.207562911305740e+05
197, -1.049722000000000e-01, 0.000000000000000e+00, -3.041150767246856e-05, 2.038366332881667e-03, 8.449815894661920e-03, -2.352253256368821e-01, 3.520688827048015e+00, 1.501497099997298e+01, -3.515370152090055e+04, 3.431293342828908e+04, 1.291205167756477e+05, 2.674211001039471e+05
198, -9.253454000000000e-02, 0.000000000000000e+00, -3.790528924906215e-05, 2.451533440766094e-03, 1.221378448906261e-02, -2.936453896704744e-01, 5.312434955747087e+00, 1.462889168557110e+01, -3.364860789024066e+04, 3.327171882220226e+04, 1.038345028478881e+05, 2.181851187729641e+05
199, -7.982535000000000e-02, 0.000000000000000e+00, -4.611776328932163e-05, 2.890015756216632e-03, 1.672387406971284e-02, -3.585775889319915e-01, 7.440063091685523e+00, 1.416719544950425e+01, -3.233555096906961e+04, 3.226179018957070e+04, 7.955000710650919e+04, 1.717138055234593e+05
200, -6.688208000000000e-02, 0.000000000000000e+00, -5.499426217911426e-05, 3.350920273716743e-03, 2.202215672346634e-02, -4.299962726978052e-01, 9.912431944628423e+00, 1.378633296130951e+01, -3.115771105000912e+04, 3.074995101872014e+04, 5.592293799491707e+04, 1.278360614175411e+05
201, -5.374259000000000e-02, 0.000000000000000e+00, -6.447781830727472e-05, 3.831745957589991e-03, 2.816435347491061e-02, -5.078399978215318e-01, 1.276428322309339e+01, 1.367470912822010e+01, -2.944124049325154e+04, 2.662564728906180e+04, 3.414999541094306e+04, 8.836506465716101e+04
202, -4.044550000000000e-02, 0.000000000000000e+00, -7.448156589935687e-05, 4.330579628875949e-03, 3.518868820091224e-02, -5.920444586098064e-01, 1.600850618151830e+01, 1.407005362580145e+01, -2.856630312667543e+04, 1.447307094778960e+04, 1.962956665808411e+04, 5.825519092285599e+04
203, -2.702974000000000e-02, 0.000000000000000e+00, -8.495309910091778e-05, 4.846304950734009e-03, 4.311811386389564e-02, -6.827435277341225e-01, 1.963586763066909e+01, 1.503044027384990e+01, -2.852299489334540e+04, 3.403551197542238e+03, 1.623815810362172e+04, 4.554135987963509e+04
204, -1.353473000000000e-02, 0.000000000000000e+00, -9.594761122273219e-05, 5.378045207387468e-03, 5.198944271237506e-02, -7.803649610836250e-01, 2.364934991161346e+01, 1.634707627119295e+01, -2.836095982026619e+04, 2.728727693751731e+03, 1.876862042087992e+04, 4.874026179383494e+04
205, -9.637083000000000e-13, 0.000000000000000e+00, -1.075157676653728e-04, 5.924497090632606e-03, 6.184064317951300e-02, -8.855397161354349e-01, 2.804795537107922e+01, 1.757194834244274e+01, -2.868603017840200e+04, 4.913468503137943e+03, 2.103042093877395e+04, 5.383345364268291e+04
206, 1.353473000000000e-02, 0.000000000000000e+00, -1.196317931746920e-04, 6.484006880032550e-03, 7.269818820752111e-02, -9.989451842784300e-01, 3.282660815358552e+01, 1.807727343297458e+01, -2.888543403493189e+04, 5.715931874793388e+03, 2.207907606157905e+04, 5.609988343794192e+04
207, 2.702974000000000e-02, 0.000000000000000e+00, -1.322491907584753e-04, 7.054753669716558e-03, 8.458899852453260e-02, -1.120970469192406e+00, 3.799596933136564e+01, 1.736182805378090e+01, -2.883293152617909e+04, 5.537785251071689e+03, 2.264854934220316e+04, 5.686100000006008e+04
208, 4.044550000000000e-02, 0.000000000000000e+00, -1.453268190082429e-04, 7.634794602936147e-03, 9.751543558065448e-02, -1.251395625362649e+00, 4.355261981445819e+01, 1.535958037901651e+01, -2.864790513002824e+04, 5.321950332181696e+03, 2.307106568363714e+04, 5.729788274655732e+04
209, 5.374259000000000e-02, 0.000000000000000e+00, -1.588211334187695e-04, 8.222034778537187e-03, 1.114134652683160e-01, -1.389470428269409e+00, 4.944209783356121e+01, 1.236534666586965e+01, -2.837784606348165e+04, 5.177542910961780e+03, 2.328987500258250e+04, 5.740764095283719e+04
210, 6.688208000000000e-02, 0.000000000000000e+00, -1.726795918445949e-04, 8.814231799407145e-03, 1.261796381122561e-01, -1.534325143296657e+00, 5.558546227066714e+01, 8.699971060337873e+00, -2.800637906535895e+04, 4.957026600491194e+03, 2.324597666482860e+04, 5.699199801286514e+04
211, 7.982535000000000e-02, 0.000000000000000e+00, -1.868405585326778e-04, 9.408992860397654e-03, 1.417169101538126e-01, -1.685133442615374e+00, 6.191719191835062e+01, 4.573971479329487e+00, -2.751427456242363e+04, 4.651868011207551e+03, 2.294680364592483e+04, 5.604358944897878e+04
212, 9.253454000000000e-02, 0.000000000000000e+00, -2.012349535384777e-04, 1.000380101597458e-02, 1.579316112801976e-01, -1.841061198822305e+00, 6.838282501207462e+01, 1.289845669945180e-01, -2.689730342100728e+04, 4.303623678086773e+03, 2.238955024886439e+04, 5.457715358305777e+04
213, 1.049722000000000e-01, 0.000000000000000e+00, -2.157858575864713e-04, 1.059600488605473e-02, 1.747178065910139e-01, -2.001197046366344e+00, 7.492716327557302e+01, -4.512763548814519e+00, -2.615886966798762e+04, 3.915057159771328e+03, 2.156271347950915e+04, 5.257607369554160e+04
214, 1.171021000000000e-01, 0.000000000000000e+00, -2.304094285427034e-04, 1.118286688841226e-02, 1.919558415994351e-01, -2.164554988701123e+00, 8.149317513289679e+01, -9.243980093114658e+00, -2.530418716152571e+04, 3.474983735083827e+03, 2.045513063137947e+04, 5.001889796950202e+04
215, 1.288884000000000e-01, 0.000000000000000e+00, -2.450145115578213e-04, 1.176153824922475e-02, 2.095149096317100e-01, -2.330081157490193e+00, 8.802466620716480e+01, -1.398428355510373e+01, -2.433799855743414e+04, 2.989118762289236e+03, 1.906868477503111e+04, 4.691727077744334e+04
216, 1.402968000000000e-01, 0.000000000000000e+00, -2.595047931452533e-04, 1.232913280676772e-02, 2.272576282346545e-01, -2.496681879047768e+00, 9.446895634644454e+01, -1.868612258040582e+01, -2.327156726625045e+04, 2.438804736565137e+03, 1.740875037476805e+04, 4.328142311624134e+04
217, 1.512935000000000e-01, 0.000000000000000e+00, -2.737784554665515e-04, 1.288269858292729e-02, 2.450400702094165e-01, -2.663215582748772e+00, 1.007769377178572e+02, -2.333245560385433e+01, -2.212635012121160e+04, 1.805728885019766e+03, 1.551094455718108e+04, 3.918037786678788e+04
218, 1.618466000000000e-01, 0.000000000000000e+00, -2.877314925379661e-04, 1.341931165141088e-02, 2.627156029464454e-01, -2.828521601488047e+00, 1.069042552717650e+02, -2.793397781708779e+01, -2.090843605920467e+04, 1.147794732532498e+03, 1.338054262193616e+04, 3.467899941128889e+04
219, 1.719248000000000e-01, 0.000000000000000e+00, -3.012573926932143e-04, 1.393603307164404e-02, 2.801350436510937e-01, -2.991412870804637e+00, 1.128110569336458e+02, -3.252582989267830e+01, -1.963538907920036e+04, 4.663586160672751e+02, 1.100004686338237e+04, 2.980074469523591e+04
220, 1.814989000000000e-01, 0.000000000000000e+00, -3.142504153860480e-04, 1.443001376845044e-02, 2.971516489027611e-01, -3.150713662528402e+00, 1.184632241215297e+02, -3.716551435800272e+01, -1.833226453826664e+04, -2.799585471319319e+02, 8.369828682091467e+03, 2.461913646470570e+04
221, 1.905404000000000e-01, -4.336809000000000e-19, -3.266059121582566e-04, 1.489845985167697e-02, 3.136210784080474e-01, -3.305251194493910e+00, 1.238316318432495e+02, -4.192817027347974e+01, -1.701702898599896e+04, -1.080391667851403e+03, 5.519238716835975e+03, 1.938619078271589e+04
222, 1.990233000000000e-01, 0.000000000000000e+00, -3.382253568699929e-04, 1.533876602975238e-02, 3.294068697756691e-01, -3.453899327976410e+00, 1.288930062486701e+02, -4.690138181517909e+01, -1.571200254350943e+04, -1.921848853962886e+03, 2.481824670788907e+03, 1.465626669952004e+04
223, 2.069223000000000e-01, 0.000000000000000e+00, -3.490165596516929e-04, 1.574846774120245e-02, 3.443792423144341e-01, -3.595559737507642e+00, 1.336283594912499e+02, -5.217560159677657e+01, -1.444284251390818e+04, -2.801346456428909e+03, -6.848760961886755e+02, 1.172180240086088e+04
224, 2.142143000000000e-01, 0.000000000000000e+00, -3.588987036156404e-04, 1.612536999560408e-02, 3.584195652584690e-01, -3.729196359122806e+00, 1.380230611183919e+02, -5.783305495558227e+01, -1.323899944593359e+04, -3.711232404628595e+03, -3.884082353319698e+03, 1.229319843258278e+04
225, 2.208774000000000e-01, 0.000000000000000e+00, -3.678044124808955e-04, 1.646755454860960e-02, 3.714196814701248e-01, -3.853821138245065e+00, 1.420651040011302e+02, -6.393125730558631e+01, -1.212605808244741e+04, -4.608336644400342e+03, -6.964746635544972e+03, 1.582867393085765e+04
226, 2.268939000000000e-01, 0.000000000000000e+00, -3.756872951667719e-04, 1.677359921598890e-02, 3.832884619340151e-01, -3.968548827810539e+00, 1.457455568549231e+02, -7.048675187853087e+01, -1.114285042557315e+04, -5.476739483715680e+03, -9.681835071523801e+03, 2.017564211157083e+04
227, 2.322460000000000e-01, 0.000000000000000e+00, -3.825192657073932e-04, 1.704242066985802e-02, 3.939435710543902e-01, -4.072510678724957e+00, 1.490544171441340e+02, -7.744977844732409e+01, -1.033293832616867e+04, -6.294559418605916e+03, -1.163606154087269e+04, 2.361991145057394e+04
228, 2.369133000000000e-01, 0.000000000000000e+00, -3.882902069747476e-04, 1.727321393241933e-02, 4.033057372153841e-01, -4.164790015025125e+00, 1.519773538730770e+02, -8.467511462695632e+01, -9.735546782285544e+03, -6.987068915509250e+03, -1.229230524497451e+04, 2.473776876613310e+04
229, 2.408804000000000e-01, 0.000000000000000e+00, -3.930194732471687e-04, 1.746588587894190e-02, 4.113126743395938e-01, -4.244552014105030e+00, 1.544988033140824e+02, -9.190760992547860e+01, -9.332888556116304e+03, -7.453550264639936e+03, -1.142289507442240e+04, 2.292295879547105e+04
230, 2.441551000000000e-01, 0.000000000000000e+00, -3.967746920555861e-04, 1.762190936723505e-02, 4.179549594666905e-01, -4.311412055432770e+00, 1.566130349172266e+02, -9.881493741818724e+01, -9.167999907649330e+03, -7.804363470302236e+03, -8.935898488083287e+03, 1.792374490698240e+04
231, 2.467325000000000e-01, -5.421011000000000e-20, -3.996212785102105e-04, 1.774244704506308e-02, 4.232028919403243e-01, -4.364737622454680e+00, 1.583022442156911e+02, -1.049540986599421e+02, -9.198076451844585e+03, -7.773412304104935e+03, -3.718909918910842e+03, 7.573033201680061e+03
232, 2.485345000000000e-01, 0.000000000000000e+00, -4.015492028476224e-04, 1.782541552473520e-02, 4.268820351233872e-01, -4.402402268366456e+00, 1.594982681489394e+02, -1.096531531610742e+02, -1.026387860384238e+04, -8.483134614809345e+03, 1.052875486595010e+03, 2.757759292535886e+03
233, 2.495362000000000e-01, 0.000000000000000e+00, -4.026034689424729e-04, 1.787111978729919e-02, 4.289296895875581e-01, -4.423455888433352e+00, 1.601669671264470e+02, -1.123951595535325e+02, -1.104798136934050e+04, 4.077036506083594e+02, -6.731784481594059e+03, 1.767768108386400e+04
234, 2.502041000000000e-01, 2.710505000000000e-20, -4.033117651101518e-04, 1.790153241784068e-02, 4.302937930578818e-01, -4.437510088530064e+00, 1.606099043767202e+02, -1.142423274101744e+02, -1.585491149468514e+04, -8.427009336592689e+02, -5.967705338045607e+03, 1.917864682232635e+04
235, -1.990233000000000e-01, -2.947129000000000e-03, 0.000000000000000e+00, 0.000000000000000e+00, 0.000000000000000e+00, 0.000000000000000e+00, 0.000000000000000e+00, 0.000000000000000e+00, 1.528174630266770e+06, 5.343783498433896e+05, 1.006648759795621e+06, 2.245216682054451e+06
236, -1.905404000000000e-01, -3.108244000000000e-03, 1.630058775626251e-05, 3.333531942364105e-05, -2.025221543916973e-03, -1.829571763854803e-03, -9.618268324443624e-03, 1.472428127849704e+00, 1.312764424553575e+06, 6.042109078201742e+03, 4.097370599142513e+05, 1.542420514266463e+06
237, -1.814989000000000e-01, -3.252287000000000e-03, 3.433955959692151e-05, 1.275475097008326e-04, -4.322666979280663e-03, -9.546316990528176e-03, -3.771892398596821e-02, 3.889420600836767e+00, 1.191983692681059e+06, -3.264356511277941e+04, 4.163443000947083e+05, 1.480905879999491e+06
238, -1.719248000000000e-01, -3.378620000000000e-03, 5.013807457520784e-05, 2.728908270069459e-04, -6.395980637964913e-03, -2.297169894984528e-02, -5.734341345330551e-02, 6.599131749827659e+00, 9.869639795172672e+05, 1.453896573820504e+04, 3.438513338414626e+05, 1.191027021759549e+06
239, -1.618466000000000e-01, -3.486796000000000e-03, 6.311426548589207e-05, 4.661156570906731e-04, -8.099808205310860e-03, -4.242658025438260e-02, -7.438783618622713e-03, 9.208253626334237e+00, 8.046957373893175e+05, 1.946025996138755e+04, 2.948249109213990e+05, 9.819784454919122e+05
240, -1.512935000000000e-01, -3.576470000000000e-03, 7.350934024768183e-05, 7.042898630338413e-04, -9.360199757171084e-03, -6.816343721815393e-02, 1.867334443359630e-01, 1.144846529535823e+01, 6.646190465445793e+05, 2.194917994772789e+04, 2.532409269520560e+05, 8.182593878262326e+05
241, -1.402968000000000e-01, -3.647516000000000e-03, 8.129211942063704e-05, 9.841375757547695e-04, -1.008396989815193e-02, -1.003552228350546e-01, 5.860241421307635e-01, 1.312991342859292e+01, 5.489454215906833e+05, 2.502477951926967e+04, 2.173733509295781e+05, 6.808065319647987e+05
242, -1.288884000000000e-01, -3.699915000000000e-03, 8.648152160978324e-05, 1.302343238862781e-03, -1.018538206389912e-02, -1.391235233270022e-01, 1.247187439370353e+00, 1.415193107666325e+01, 4.526092351015802e+05, 2.633968150877639e+04, 1.856501708807966e+05, 5.653049408173292e+05
243, -1.171021000000000e-01, -3.733874000000000e-03, 8.915938029793634e-05, 1.655550805013470e-03, -9.586999109252875e-03, -1.845264866443778e-01, 2.223986858523306e+00, 1.452092480386548e+01, 3.728482674899215e+05, 2.687394229233305e+04, 1.571712350599222e+05, 4.674499141266067e+05
244, -1.049722000000000e-01, -3.749705000000000e-03, 8.944028365773249e-05, 2.040436265140574e-03, -8.219877828088421e-03, -2.365585548296581e-01, 3.561899697681643e+00, 1.436316415537684e+01, 3.071344583610470e+05, 2.675971618952787e+04, 1.310454442704439e+05, 3.837989446362481e+05
245, -9.253454000000000e-02, -3.747926000000000e-03, 8.747596506947336e-05, 2.453731014685552e-03, -6.029778658249489e-03, -2.951641924227061e-01, 5.286801111977151e+00, 1.389713762645790e+01, 2.539470028498361e+05, 2.624968740483404e+04, 1.065531718630913e+05, 3.118659667184008e+05
246, -7.982535000000000e-02, -3.729145000000000e-03, 8.344675104803106e-05, 2.892323169309996e-03, -2.976430906953695e-03, -3.602872129908953e-01, 7.402291413725828e+00, 1.334770917860709e+01, 2.124324293515233e+05, 2.552084299380049e+04, 8.302518796829667e+04, 2.500173363257925e+05
247, -6.688208000000000e-02, -3.694141000000000e-03, 7.756163691747933e-05, 3.353324485133838e-03, 9.807804770530851e-04, -4.318900692057352e-01, 9.914438086438761e+00, 1.288668957646752e+01, 1.822588944203714e+05, 2.422867125697611e+04, 6.027249139630540e+04, 1.987577528287724e+05
248, -5.374259000000000e-02, -3.643765000000000e-03, 7.005331258860005e-05, 3.834248906459034e-03, 5.882567544455451e-03, -5.099101682087845e-01, 1.283923184946132e+01, 1.270780320115321e+01, 1.631477902334439e+05, 2.082671238871542e+04, 3.971822281099668e+04, 1.629890735354403e+05
249, -4.044550000000000e-02, -3.578988000000000e-03, 6.117148566693709e-05, 4.333206391788329e-03, 1.174356321099808e-02, -5.942971560233762e-01, 1.616483106234929e+01, 1.303068221217664e+01, 1.521931099844809e+05, 1.218983684105124e+04, 2.617418888039272e+04, 1.494699606779224e+05
250, -2.702974000000000e-02, -3.500831000000000e-03, 5.109217042969064e-05, 4.849042466720827e-03, 1.855697434174577e-02, -6.851880421264547e-01, 1.984951969300683e+01, 1.391219777341841e+01, 1.457252188026703e+05, 4.468070747873000e+03, 2.280439681127588e+04, 1.484376769296780e+05
251, -1.353473000000000e-02, -3.410385000000000e-03, 3.984416279598856e-05, 5.380841005284531e-03, 2.632942926516575e-02, -7.830008375905564e-01, 2.385563045117815e+01, 1.514928241489829e+01, 1.407158481007825e+05, 3.827267299415296e+03, 2.509359002933620e+04, 1.457986165779842e+05
252, -9.637083000000000e-13, -3.308766000000000e-03, 2.740415013619462e-05, 5.927325073272436e-03, 3.509330134588171e-02, -8.883598859990058e-01, 2.815842670937433e+01, 1.629431301014955e+01, 1.348949238182932e+05, 5.376042222005848e+03, 2.731473969275678e+04, 1.405685623028327e+05
253, 1.353473000000000e-02, -3.197115000000000e-03, 1.379232547415124e-05, 6.486857860595755e-03, 4.491125216307010e-02, -1.001925276460503e+00, 3.276242654897861e+01, 1.673594926206164e+01, 1.283387754993302e+05, 5.959103647700847e+03, 2.827069394171377e+04, 1.348099129377981e+05
254, 2.702974000000000e-02, -3.076578000000000e-03, -9.418623337278118e-07, 7.057616232975401e-03, 5.587812781086932e-02, -1.124068218013815e+00, 3.771527324913483e+01, 1.598894526487604e+01, 1.213816019105845e+05, 5.788068395884848e+03, 2.866171351360010e+04, 1.290265099758834e+05
255, 4.044550000000000e-02, -2.948292000000000e-03, -1.674120688045712e-05, 7.637652818243720e-03, 6.807174902688273e-02, -1.254573422730474e+00, 4.306232888515893e+01, 1.398004746225314e+01, 1.140591649150088e+05, 5.561055831984060e+03, 2.885831588468267e+04, 1.228944639005047e+05
256, 5.374259000000000e-02, -2.813383000000000e-03, -3.353999584736780e-05, 8.224871713870282e-03, 8.148581880349950e-02, -1.392708928142319e+00, 4.878802513279437e+01, 1.098739238382217e+01, 1.063268049838634e+05, 5.372309353632134e+03, 2.881490130432454e+04, 1.162454486707598e+05
257, 6.688208000000000e-02, -2.672945000000000e-03, -5.126029826610980e-05, 8.817030677615030e-03, 9.603922680646343e-02, -1.537603172706799e+00, 5.482538629094183e+01, 7.331950310531113e+00, 9.818435135646256e+04, 5.115367622899822e+03, 2.846738157458291e+04, 1.091027176015785e+05
258, 7.982535000000000e-02, -2.528055000000000e-03, -6.981022334210184e-05, 9.411736761265260e-03, 1.116285895561222e-01, -1.688421395483097e+00, 6.109944083869593e+01, 3.229677870561261e+00, 8.965587028069646e+04, 4.781631372124899e+03, 2.781995715408967e+04, 1.014861394207644e+05
259, 9.253454000000000e-02, -2.379750000000000e-03, -8.908586775358960e-05, 1.000647291492542e-02, 1.281473765675754e-01, -1.844327135321609e+00, 6.754275485340321e+01, -1.177150452010551e+00, 8.076476070473774e+04, 4.400929139446830e+03, 2.687169299606838e+04, 9.337979604406899e+04
260, 1.049722000000000e-01, -2.229046000000000e-03, -1.089700563810327e-04, 1.059858803998269e-02, 1.454789459397559e-01, -2.004410679951866e+00, 7.409096060207631e+01, -5.768651521311142e+00, 7.153745069797768e+04, 3.975894536856028e+03, 2.561362147910059e+04, 8.478675776329088e+04
261, 1.171021000000000e-01, -2.076921000000000e-03, -1.293338398821634e-04, 1.118534515256363e-02, 1.634926987405816e-01, -2.167687938488704e+00, 8.067997752526945e+01, -1.043979174099144e+01, 6.201424895751158e+04, 3.498478822852229e+03, 2.403744493922543e+04, 7.573170004217169e+04
262, 1.288884000000000e-01, -1.924338000000000e-03, -1.500349844869579e-04, 1.176389636275298e-02, 1.820436531948015e-01, -2.333106650593288e+00, 8.724680913049662e+01, -1.511190624711753e+01, 5.225035979626389e+04, 2.972353178859910e+03, 2.214908476261792e+04, 6.626197823391213e+04
263, 1.402968000000000e-01, -1.772228000000000e-03, -1.709208611153781e-04, 1.233135677226779e-02, 2.009769427780442e-01, -2.499575089868231e+00, 9.373237813973230e+01, -1.973909861366553e+01, 4.230595139868556e+04, 2.384140575851839e+03, 1.995883907350391e+04, 5.645504413267453e+04
264, 1.512935000000000e-01, -1.621512000000000e-03, -1.918275293992829e-04, 1.288477599154169e-02, 2.201282265258300e-01, -2.665954263939105e+00, 1.000822461486290e+02, -2.430609705099664e+01, 3.223000638234105e+04, 1.723119116832310e+03, 1.750427563410882e+04, 4.643564183393918e+04
265, 1.618466000000000e-01, -1.473089000000000e-03, -2.125841127493483e-04, 1.342123185967535e-02, 2.393277872028265e-01, -2.831086599101041e+00, 1.062480184179446e+02, -2.882536973258755e+01, 2.207789103599891e+04, 1.031299008475591e+03, 1.479549790726886e+04, 3.631234045430007e+04
266, 1.719248000000000e-01, -1.327852000000000e-03, -2.330123106632058e-04, 1.393778765059710e-02, 2.584005744259126e-01, -2.993788507347898e+00, 1.121870210889584e+02, -3.333374962258813e+01, 1.191420053981079e+04, 3.111728526678476e+02, 1.182436248921307e+04, 2.634183829222710e+04
267, 1.814989000000000e-01, -1.186682000000000e-03, -2.529302255595144e-04, 1.443159688723430e-02, 2.771714344506127e-01, -3.152888041854206e+00, 1.178634811335378e+02, -3.789028941508457e+01, 1.832042632264220e+03, -4.660301966493191e+02, 8.601948120434608e+03, 1.735670431255844e+04
268, 1.905404000000000e-01, -1.050452000000000e-03, -2.721530103565884e-04, 1.489986848488232e-02, 2.954655766039728e-01, -3.307216435860019e+00, 1.232478143968513e+02, -4.257151024714858e+01, -8.039798833004477e+03, -1.290518831475539e+03, 5.169398295768504e+03, 1.234680102294581e+04
269, 1.990233000000000e-01, -9.200083000000000e-04, -2.904997282037209e-04, 1.534000017224302e-02, 3.131148879840705e-01, -3.455651668579846e+00, 1.283175224489127e+02, -4.746617253619854e+01, -1.754560592743664e+04, -2.147117082274887e+03, 1.574793756244159e+03, 1.571729493944150e+04
270, 2.069223000000000e-01, -7.961963000000000e-04, -3.077934427781665e-04, 1.574953060439776e-02, 3.299570654055078e-01, -3.597099567458643e+00, 1.330556194331749e+02, -5.266570327625652e+01, -2.649199978653671e+04, -3.030986928378802e+03, -2.106552190784108e+03, 2.383630367445087e+04
271, 2.142143000000000e-01, -6.798753000000000e-04, -3.238667973771897e-04, 1.612626811173403e-02, 3.458404569414755e-01, -3.730528188999821e+00, 1.374505911471775e+02, -5.825310843773548e+01, -3.462924867682093e+04, -3.932435069511069e+03, -5.755651708756957e+03, 3.278421071204844e+04
272, 2.208774000000000e-01, -5.718598000000000e-04, -3.385687609124215e-04, 1.646829766205373e-02, 3.606251310903474e-01, -3.854953352405805e+00, 1.414944594719669e+02, -6.428646376954146e+01, -4.163058477757413e+04, -4.800543949976209e+03, -9.197301879556355e+03, 4.116811089687372e+04
273, 2.268939000000000e-01, -4.727680000000000e-04, -3.517822059204024e-04, 1.677419989160287e-02, 3.741927555780713e-01, -3.969493056964343e+00, 1.451829244574971e+02, -7.078259448427207e+01, -4.714079248234740e+04, -5.621038465591414e+03, -1.216445837457431e+04, 4.812261592846890e+04
274, 2.322460000000000e-01, -3.832931000000000e-04, -3.634099934053316e-04, 1.704289404649858e-02, 3.864336539004574e-01, -4.073281654641244e+00, 1.485103765639128e+02, -7.769197423878109e+01, -5.080373132574971e+04, -6.376847605771507e+03, -1.423501663743763e+04, 5.276637936926285e+04
275, 2.369133000000000e-01, -3.046217000000000e-04, -3.733571278617982e-04, 1.727357778489761e-02, 3.972326261340313e-01, -4.165406251517235e+00, 1.514650828555123e+02, -8.486989849829422e+01, -5.219479195655046e+04, -6.974856454965986e+03, -1.485102709377922e+04, 5.410226048630610e+04
276, 2.408804000000000e-01, -2.375136000000000e-04, -3.815923189789186e-04, 1.746615937821451e-02, 4.065000963980050e-01, -4.245034652745884e+00, 1.540321580588391e+02, -9.206151768608379e+01, -5.072997320042049e+04, -7.336680762155027e+03, -1.376407102901654e+04, 5.138848542037483e+04
277, 2.441551000000000e-01, -1.805256000000000e-04, -3.882538914056854e-04, 1.762210977955594e-02, 4.142438383156556e-01, -4.311780126701818e+00, 1.562072912166081e+02, -9.893348913653142e+01, -4.641543779889892e+04, -7.662326577621172e+03, -1.089524444054882e+04, 4.445929638451291e+04
278, 2.467325000000000e-01, -1.335980000000000e-04, -3.934242335415162e-04, 1.774259058723851e-02, 4.204237214508862e-01, -4.365010651409206e+00, 1.579681497191775e+02, -1.050428792391747e+02, -4.012525803266985e+04, -7.510871854326226e+03, -5.309520205281857e+03, 3.429959482313628e+04
279, 2.485345000000000e-01, -1.044067000000000e-04, -3.967657370123667e-04, 1.782552530448129e-02, 4.246930856642446e-01, -4.402615883897696e+00, 1.592186130770122e+02, -1.097230538089088e+02, -3.182348166862276e+04, -7.834382390640103e+03, 2.896579989171951e+02, 2.399609324857392e+04
280, 2.495362000000000e-01, -9.519618000000000e-05, -3.982624139142306e-04, 1.787121784463440e-02, 4.269281373707202e-01, -4.423650978586399e+00, 1.599055867256931e+02, -1.124596522300986e+02, -1.950330394589741e+04, 1.326790780362144e+03, -6.292186863402135e+03, 2.433637829260607e+04
281, 2.502041000000000e-01, -4.696250000000000e-05, -4.011718221943841e-04, 1.790158074948551e-02, 4.293058589145952e-01, -4.437606360429594e+00, 1.604805545281054e+02, -1.142741479688580e+02, -1.765837595545578e+04, 6.192664233008406e+02, -1.121442928465702e+04, 2.893312820363557e+04
282, -1.990233000000000e-01, -5.894257000000000e-03, 0.000000000000000e+00, 0.000000000000000e+00, 0.000000000000000e+00, 0.000000000000000e+00, 0.000000000000000e+00, 0.000000000000000e+00, 3.193689391112277e+06, 1.110396041169570e+06, 1.103675396695592e+06, 3.035211476487296e+06
283, -1.905404000000000e-01, -6.216489000000000e-03, 3.408767279741588e-05, 3.651909258098990e-05, -3.701587591699868e-03, -2.247128417118901e-03, 3.140270060992200e-01, 1.449600903618434e+00, 2.682913595219657e+06, -6.614458250315848e+04, 2.998042126626499e+05, 2.813689948844004e+06
284, -1.814989000000000e-01, -6.504574000000000e-03, 7.132413258301332e-05, 1.310376181633032e-04, -7.934229721125069e-03, -1.007316838296503e-02, 5.613183396369548e-01, 3.815767417195714e+00, 2.424463931844310e+06, -5.837014753812889e+04, 2.644186675757013e+05, 2.538529888103128e+06
285, -1.719248000000000e-01, -6.757240000000000e-03, 1.040935949564777e-04, 2.758912762404736e-04, -1.193380121767347e-02, -2.356454749337245e-02, 6.597412382181387e-01, 6.441784498506525e+00, 1.998224320802923e+06, 9.872517671374786e+03, 2.485361221491873e+05, 2.049542316974280e+06
286, -1.618466000000000e-01, -6.973592000000000e-03, 1.322707825884882e-04, 4.689582730965122e-04, -1.558890636321799e-02, -4.313374935730541e-02, 7.006615587999359e-01, 8.966340352627569e+00, 1.643417084007269e+06, 6.192163698499782e+03, 2.223358124544788e+05, 1.696537147745144e+06
287, -1.512935000000000e-01, -7.152941000000000e-03, 1.561975550428378e-04, 7.070640060326074e-04, -1.879982419465550e-02, -6.900819945417772e-02, 8.005582501069624e-01, 1.111899168337513e+01, 1.365932688154892e+06, 1.236845348631240e+04, 1.992890956080702e+05, 1.411028246310848e+06
288, -1.402968000000000e-01, -7.295031000000000e-03, 1.757843241963066e-04, 9.868726586983101e-04, -2.143905385785445e-02, -1.013522205642663e-01, 1.053911811050813e+00, 1.271185883238672e+01, 1.133617383337354e+06, 1.564232121280724e+04, 1.766987863385287e+05, 1.172500782049385e+06
289, -1.288884000000000e-01, -7.399830000000000e-03, 1.911036850813702e-04, 1.305070967133372e-03, -2.339738024459359e-02, -1.402835194161785e-01, 1.551957633169688e+00, 1.364825753128425e+01, 9.407189185578183e+05, 1.788365063032520e+04, 1.550505435691767e+05, 9.735438438895275e+05
290, -1.171021000000000e-01, -7.467748000000000e-03, 2.022810266759034e-04, 1.658287020588406e-03, -2.457477793310035e-02, -1.858555166941817e-01, 2.378474566022411e+00, 1.393733278578103e+01, 7.802327567176793e+05, 1.908921388707338e+04, 1.342844380434402e+05, 8.071361310183657e+05
291, -1.049722000000000e-01, -7.499411000000000e-03, 2.095028154878624e-04, 2.043189930904799e-03, -2.488530992345220e-02, -2.380607873272571e-01, 3.601509487101488e+00, 1.370467648881676e+01, 6.476837075132407e+05, 1.957814034737971e+04, 1.143227123149480e+05, 6.684275081928730e+05
292, -9.253454000000000e-02, -7.495851000000000e-03, 2.130161882207852e-04, 2.456506537311313e-03, -2.426313702444765e-02, -2.968447253296002e-01, 5.260429672549671e+00, 1.316286042026184e+01, 5.400865006998664e+05, 1.955170630813625e+04, 9.503008762051954e+04, 5.541474013158371e+05
293, -7.982535000000000e-02, -7.458289000000000e-03, 2.131236982741287e-04, 2.895124018905622e-03, -2.266063898773334e-02, -3.621504468911071e-01, 7.365593279449493e+00, 1.253328361402197e+01, 4.558764347698581e+05, 1.917186450456551e+04, 7.623322347249443e+04, 4.625547525803005e+05
294, -6.688208000000000e-02, -7.388282000000000e-03, 2.101880109804841e-04, 3.356158139419939e-03, -2.003833468659035e-02, -4.339331418194678e-01, 9.919739006902041e+00, 1.199657514536975e+01, 3.944117885445779e+05, 1.824086509202588e+04, 5.809206162538236e+04, 3.937046026486033e+05
295, -5.374259000000000e-02, -7.287529000000000e-03, 2.046181119079644e-04, 3.837133037645005e-03, -1.636904049234450e-02, -5.121301940507272e-01, 1.292200075666649e+01, 1.174888911030278e+01, 3.546691985986691e+05, 1.581814439725682e+04, 4.202277889844759e+04, 3.491184508426899e+05
296, -4.044550000000000e-02, -7.157976000000000e-03, 1.968318639983740e-04, 4.336169169476603e-03, -1.166235813922266e-02, -5.967009103798115e-01, 1.633547568405764e+01, 1.199764771621098e+01, 3.321491213281456e+05, 1.030265342597679e+04, 3.172585901232624e+04, 3.280415666060961e+05
297, -2.702974000000000e-02, -7.001662000000000e-03, 1.871330680175558e-04, 4.852081277685519e-03, -5.957615060681168e-03, -6.877844379931378e-01, 2.008351358704882e+01, 1.279784046117824e+01, 3.195270232102741e+05, 5.447767579728636e+03, 2.937384393806559e+04, 3.195263207440489e+05
298, -1.353473000000000e-02, -6.820770000000000e-03, 1.756292071399107e-04, 5.383920928176277e-03, 7.193765949112529e-04, -7.857903606029686e-01, 2.408616493663236e+01, 1.395096470038530e+01, 3.097182598429142e+05, 4.930105296513195e+03, 3.143052340387352e+04, 3.112030371920662e+05
299, -9.637083000000000e-13, -6.617531000000000e-03, 1.623179539843350e-04, 5.930422758483014e-03, 8.393647491277884e-03, -8.913333561778826e-01, 2.829280419510822e+01, 1.501346699866929e+01, 2.985397803868607e+05, 5.868589387677236e+03, 3.339007133523731e+04, 3.001932935559512e+05
300, 1.353473000000000e-02, -6.394229000000000e-03, 1.472117275113509e-04, 6.489960439971949e-03, 1.716387247647475e-02, -1.005056152209121e+00, 3.271666738661812e+01, 1.538922198037750e+01, 2.856410790368280e+05, 6.215428846379931e+03, 3.419451308936790e+04, 2.876729964491461e+05
301, 2.702974000000000e-02, -6.153156000000000e-03, 1.303619352567403e-04, 7.060710107764937e-03, 2.719650243038316e-02, -1.127314156388346e+00, 3.744546846671839e+01, 1.460666453642366e+01, 2.716620285448044e+05, 6.039712729016838e+03, 3.440707968276358e+04, 2.743913322037089e+05
302, 4.044550000000000e-02, -5.896584000000000e-03, 1.118418670337729e-04, 7.640721663600352e-03, 3.864980437559309e-02, -1.257894622844830e+00, 4.257758385224476e+01, 1.258816159165559e+01, 2.568353489414635e+05, 5.791776062649211e+03, 3.435025953804913e+04, 2.602741570058116e+05
303, 5.374259000000000e-02, -5.626765000000000e-03, 9.173962189942804e-05, 8.227898552520317e-03, 5.157649104698475e-02, -1.396079742599205e+00, 4.813747191702210e+01, 9.598788740872124e+00, 2.411136475129381e+05, 5.547624793182245e+03, 3.399175013406815e+04, 2.451797450213052e+05
304, 6.688208000000000e-02, -5.345890000000000e-03, 7.015863110138925e-05, 8.819998728065452e-03, 6.591577236442278e-02, -1.540999375824079e+00, 5.406861334342055e+01, 5.957089424023934e+00, 2.244700168728686e+05, 5.241055781616371e+03, 3.327800735820018e+04, 2.291092326295025e+05
305, 7.982535000000000e-02, -5.056110000000000e-03, 4.722084018663385e-05, 9.414629340076645e-03, 8.155612414110699e-02, -1.691814091516203e+00, 6.028509594299983e+01, 1.881527084583183e+00, 2.069331480630556e+05, 4.864712174012573e+03, 3.221247424868503e+04, 2.120901383174925e+05
306, 9.253454000000000e-02, -4.759500000000000e-03, 2.306497670221188e-05, 1.000927353075977e-02, 9.837748704789356e-02, -1.847685741490593e+00, 6.670594604566347e+01, -2.485397430218256e+00, 1.885464415824474e+05, 4.437444043319929e+03, 3.079666103880370e+04, 1.941387655761165e+05
307, 1.049722000000000e-01, -4.458091000000000e-03, -2.151609314379006e-06, 1.060128072247209e-02, 1.162527124428230e-01, -2.007705711156522e+00, 7.325773659620224e+01, -7.025587908889747e+00, 1.693658085335662e+05, 3.961942971139107e+03, 2.902720923152507e+04, 1.752961900500876e+05
308, 1.171021000000000e-01, -4.153842000000000e-03, -2.825475070046204e-05, 1.118791475259052e-02, 1.350404812055104e-01, -2.170891586820428e+00, 7.986950329415848e+01, -1.163597438873916e+01, 1.494763476467500e+05, 3.433307832873043e+03, 2.690265683726261e+04, 1.556392664390696e+05
309, 1.288884000000000e-01, -3.848675000000000e-03, -5.505134749977004e-05, 1.176632882790681e-02, 1.545817509797687e-01, -2.336192817614609e+00, 8.647146240464619e+01, -1.623957224938727e+01, 1.289936334110898e+05, 2.854063725851605e+03, 2.443517388610905e+04, 1.352756516589538e+05
310, 1.402968000000000e-01, -3.544456000000000e-03, -8.233226790861311e-05, 1.233363948850779e-02, 1.747041174193787e-01, -2.502519752721585e+00, 9.299810773564818e+01, -2.079211339530224e+01, 1.080494667172009e+05, 2.215548197219555e+03, 2.164146552579393e+04, 1.143426011148537e+05
311, 1.512935000000000e-01, -3.243024000000000e-03, -1.098715768899682e-04, 1.288689805699512e-02, 1.952228880864296e-01, -2.668736022166471e+00, 9.938966649021296e+01, -2.528001404561940e+01, 8.676383639879587e+04, 1.512921390953280e+03, 1.855713225755493e+04, 9.297949849387199e+04
312, 1.618466000000000e-01, -2.946179000000000e-03, -1.374314244979002e-04, 1.342318426979179e-02, 2.159452619289282e-01, -2.833687170716980e+00, 1.055937123038386e+02, -2.971743100418087e+01, 6.525308629391059e+04, 7.749251890623523e+02, 1.519688896423655e+04, 7.128264161931784e+04
313, 1.719248000000000e-01, -2.655704000000000e-03, -1.647618894843498e-04, 1.393956367110516e-02, 2.366703768768219e-01, -2.996193100576698e+00, 1.115647544050728e+02, -3.414281610382420e+01, 4.366225490269142e+04, 6.049644263194523e+00, 1.156750487228563e+04, 4.940741779781072e+04
314, 1.814989000000000e-01, -2.373364000000000e-03, -1.916047729065850e-04, 1.443319240396952e-02, 2.571946205072696e-01, -3.155085655839952e+00, 1.172653597292545e+02, -3.861671512556086e+01, 2.220162891223374e+04, -8.102186688552608e+02, 7.696060860035976e+03, 2.768505987244352e+04
315, 1.905404000000000e-01, -2.100903000000000e-03, -2.176951202026502e-04, 1.490128219612436e-02, 2.773127702687492e-01, -3.309200057696677e+00, 1.226654783718169e+02, -4.321697726981483e+01, 1.147051322993879e+03, -1.664573199607552e+03, 3.636915236992986e+03, 7.798323038986056e+03
316, 1.990233000000000e-01, -1.840017000000000e-03, -2.427693918524228e-04, 1.534123376239128e-02, 2.968249899596846e-01, -3.457418359742185e+00, 1.277433779903044e+02, -4.803349316440585e+01, -1.916853099449293e+04, -2.539036871836513e+03, -5.438974511029814e+02, 1.666503442914925e+04
317, 2.069223000000000e-01, -1.592393000000000e-03, -2.665660843234923e-04, 1.575058888811582e-02, 3.155364955618338e-01, -3.598650461727961e+00, 1.324840693606525e+02, -5.315862130838252e+01, -3.833398478668321e+04, -3.426012715011560e+03, -4.748436027198358e+03, 3.617674796017726e+04
318, 2.142143000000000e-01, -1.359751000000000e-03, -2.888312115325508e-04, 1.612715910385895e-02, 3.332625707343325e-01, -3.731868451534073e+00, 1.368791517393456e+02, -5.867611945418037e+01, -5.582175871216050e+04, -4.312787514026944e+03, -8.828056849069992e+03, 5.445100976852312e+04
319, 2.208774000000000e-01, -1.143720000000000e-03, -3.093300552079612e-04, 1.646903241992737e-02, 3.498314902486980e-01, -3.856091918342603e+00, 1.409246773885528e+02, -6.464460668176332e+01, -7.095273939491797e+04, -5.140441382657400e+03, -1.257639929394620e+04, 7.045510518378124e+04
320, 2.268939000000000e-01, -9.455361000000000e-04, -3.278747170790402e-04, 1.677479208286595e-02, 3.650977139819789e-01, -3.970442002820001e+00, 1.446209832126220e+02, -7.108118986265413e+01, -8.297736303285288e+04, -5.897205574718462e+03, -1.570447376446603e+04, 8.323384322885734e+04
321, 2.322460000000000e-01, -7.665862000000001e-04, -3.442989450798285e-04, 1.704335965325268e-02, 3.789241995919407e-01, -4.074056067723346e+00, 1.479668567480002e+02, -7.793659808021255e+01, -9.114132905484259e+04, -6.569554443289634e+03, -1.776345138655169e+04, 9.173083386515602e+04
322, 2.369133000000000e-01, -6.092434000000000e-04, -3.584228387509242e-04, 1.727393512602754e-02, 3.911598107429645e-01, -4.166024926096915e+00, 1.509531713005836e+02, -8.506668579461871e+01, -9.455688744851734e+04, -7.045229853678778e+03, -1.816555782193073e+04, 9.475357607459415e+04
323, 2.408804000000000e-01, -4.750271000000000e-04, -3.701644422217030e-04, 1.746642790350652e-02, 4.016876840723914e-01, -4.245518942847721e+00, 1.535657322039153e+02, -9.221695001565524e+01, -9.207221799063553e+04, -7.267523569645340e+03, -1.663116373743644e+04, 9.109455870074351e+04
324, 2.441551000000000e-01, -3.610512000000000e-04, -3.797327350508212e-04, 1.762230679254346e-02, 4.105327892576176e-01, -4.312149233841524e+00, 1.558016557364358e+02, -9.905308444238733e+01, -8.363922530794142e+04, -7.539519499279038e+03, -1.313573388676690e+04, 8.050686457154313e+04
325, 2.467325000000000e-01, -2.671960000000000e-04, -3.872269879842720e-04, 1.774273202047511e-02, 4.176445877324122e-01, -4.365284286548595e+00, 1.576341213888113e+02, -1.051323106961269e+02, -7.112372641611638e+04, -7.299161837582084e+03, -7.002221016097286e+03, 6.534293718737009e+04
326, 2.485345000000000e-01, -2.088133000000000e-04, -3.919824999905398e-04, 1.782563384861339e-02, 4.225040709154297e-01, -4.402829832314498e+00, 1.589388703940468e+02, -1.097933342226978e+02, -5.344877324089535e+04, -6.809257920752980e+03, -1.216659979995111e+02, 4.664015008292824e+04
327, 2.495362000000000e-01, -1.903924000000000e-04, -3.939217051597695e-04, 1.787131540961075e-02, 4.249264786784294e-01, -4.423846205993771e+00, 1.596441216209618e+02, -1.125242895109847e+02, -2.892214700946183e+04, 1.224688730521167e+03, -3.974704089626525e+03, 3.117731219226397e+04
328, 2.502041000000000e-01, -1.235855000000000e-04, -3.976794256454017e-04, 1.790165934577283e-02, 4.276942224927823e-01, -4.437763511022375e+00, 1.602698507497073e+02, -1.143261482842264e+02, -1.664894335807750e+04, 5.327274976695820e+03, -1.470822147568257e+04, 3.671894998782709e+04
329, -1.990233000000000e-01, -8.841386000000000e-03, 0.000000000000000e+00, 0.000000000000000e+00, 0.000000000000000e+00, 0.000000000000000e+00, 0.000000000000000e+00, 0.000000000000000e+00, 5.109048349521142e+06, 1.770742614525001e+06, 1.281632143260445e+06, 4.208872649874498e+06
330, -1.905404000000000e-01, -9.324733000000000e-03, 5.459115363834746e-05, 4.240459822422869e-05, -5.541960623226544e-03, -2.915853183303709e-03, 7.463553547235713e-01, 1.481905236445894e+00, 4.059354270827470e+06, -2.909932713023281e+05, -2.458568921139883e+04, 4.350625421910139e+06
331, -1.814989000000000e-01, -9.756861000000000e-03, 1.108034698283576e-04, 1.365161520570059e-04, -1.167402657825827e-02, -1.080181072792150e-02, 1.268575977824169e+00, 3.772564022481621e+00, 3.635881166256764e+06, 2.494589986040690e+04, 5.224828163631741e+04, 3.612446958758111e+06
332, -1.719248000000000e-01, -1.013586000000000e-02, 1.595880005087386e-04, 2.805481500992790e-04, -1.753917090197432e-02, -2.435448156426302e-02, 1.440454804773330e+00, 6.293468854255373e+00, 2.956506586669892e+06, -2.136011697112939e+03, 7.585656427333856e+04, 2.962529813899816e+06
333, -1.618466000000000e-01, -1.046039000000000e-02, 2.027961618193395e-04, 4.733058815530772e-04, -2.314432113989884e-02, -4.404323744297720e-02, 1.453272417924573e+00, 8.721858050501595e+00, 2.466354034159947e+06, 6.753819659106230e+03, 9.308449989835333e+04, 2.466635788205848e+06
334, -1.512935000000000e-01, -1.072941000000000e-02, 2.399670937146830e-04, 7.111125998654119e-04, -2.829096060848919e-02, -7.004859238094552e-02, 1.439545132741271e+00, 1.077879226949969e+01, 2.050993673879506e+06, 8.766794600559471e+03, 9.940405843909415e+04, 2.051880916083113e+06
335, -1.402968000000000e-01, -1.094255000000000e-02, 2.711552517829996e-04, 9.907061389302012e-04, -3.283576456755928e-02, -1.025392222053898e-01, 1.531587224176452e+00, 1.228026704215976e+01, 1.707590422398226e+06, 1.105846271416202e+04, 9.939310246501448e+04, 1.708138356661993e+06
336, -1.288884000000000e-01, -1.109975000000000e-02, 2.964321023299798e-04, 1.308733810384576e-03, -3.664164595193647e-02, -1.416261313071816e-01, 1.853842828301618e+00, 1.313151942544938e+01, 1.420833968433347e+06, 1.263925892230623e+04, 9.508258199415734e+04, 1.420976822291478e+06
337, -1.171021000000000e-01, -1.120162000000000e-02, 3.159667022382533e-04, 1.661816585498173e-03, -3.958572030931705e-02, -1.873597320974298e-01, 2.521431137097315e+00, 1.334306633642572e+01, 1.181677187855888e+06, 1.364586620048942e+04, 8.797724221332642e+04, 1.181210035919906e+06
338, -1.049722000000000e-01, -1.124912000000000e-02, 3.300082786735237e-04, 2.046614036145011e-03, -4.156372913072516e-02, -2.397309304144789e-01, 3.626634423663219e+00, 1.303880070594663e+01, 9.835768757748099e+05, 1.417468953629319e+04, 7.913701577475300e+04, 9.822378875542064e+05
339, -9.253454000000000e-02, -1.124378000000000e-02, 3.388931094992010e-04, 2.459848973808821e-03, -4.249828593562895e-02, -2.986854848665823e-01, 5.221817867524289e+00, 1.242633460118098e+01, 8.223408203541981e+05, 1.435056868552600e+04, 6.932964961170701e+04, 8.198015906624800e+05
340, -7.982535000000000e-02, -1.118743000000000e-02, 3.430403647454527e-04, 2.898408060545519e-03, -4.233588637163156e-02, -3.641658381147499e-01, 7.320233536172060e+00, 1.172397917318415e+01, 6.958277546375636e+05, 1.426919640805651e+04, 5.916409888798364e+04, 6.917540246972133e+05
341, -6.688208000000000e-02, -1.108242000000000e-02, 3.429638415551573e-04, 3.359410996960085e-03, -4.103726836740856e-02, -4.361233346627260e-01, 9.920222907534322e+00, 1.111633835892717e+01, 6.033350980599867e+05, 1.380797609923189e+04, 4.935065810733136e+04, 5.977325299411415e+05
342, -5.374259000000000e-02, -1.093129000000000e-02, 3.392518579035569e-04, 3.840388478326178e-03, -3.858486280273150e-02, -5.144963221560138e-01, 1.300850438247661e+01, 1.079984202539308e+01, 5.435313680180707e+05, 1.238563925735703e+04, 4.114951824798426e+04, 5.374838756548092e+05
343, -4.044550000000000e-02, -1.073696000000000e-02, 3.325051447497551e-04, 4.339462332513709e-03, -3.501285598797230e-02, -5.992510954256485e-01, 1.652398632787387e+01, 1.097353979562889e+01, 5.104248120607946e+05, 9.247430773260310e+03, 3.651760118361911e+04, 5.064710340177945e+05
344, -2.702974000000000e-02, -1.050249000000000e-02, 3.231658540652749e-04, 4.855420461044848e-03, -3.039959385383130e-02, -6.905286396242027e-01, 2.034991191360071e+01, 1.168978380543125e+01, 4.927157895954136e+05, 6.415626274666731e+03, 3.612137196104070e+04, 4.916369218185068e+05
345, -1.353473000000000e-02, -1.023115000000000e-02, 3.114068984426369e-04, 5.387285124631958e-03, -2.481002946634142e-02, -7.887309393037720e-01, 2.435854585457335e+01, 1.275371325747435e+01, 4.787672643221405e+05, 5.913796197501684e+03, 3.782241131075986e+04, 4.788658909412321e+05
346, -9.637083000000000e-13, -9.926297000000001e-03, 2.972286432503939e-04, 5.933790235781428e-03, -1.823110586137883e-02, -8.944599691125674e-01, 2.846792865333757e+01, 1.372899287363725e+01, 4.623418249294043e+05, 6.347890595561530e+03, 3.925104963476438e+04, 4.627018994330798e+05
347, 1.353473000000000e-02, -9.591344000000000e-03, 2.806296504734886e-04, 6.493314629591125e-03, -1.052764249730473e-02, -1.008339731571674e+00, 3.269842405477446e+01, 1.403486168064018e+01, 4.430390245806670e+05, 6.491008986787941e+03, 3.984406936616952e+04, 4.437616132267168e+05
348, 2.702974000000000e-02, -9.229734000000000e-03, 2.616649928537404e-04, 7.064035347586215e-03, -1.451922100171033e-03, -1.130710405490444e+00, 3.718597469165960e+01, 1.321263928887052e+01, 4.220187372433046e+05, 6.289079523759581e+03, 3.988936366838733e+04, 4.233152414490712e+05
349, 4.044550000000000e-02, -8.844876000000000e-03, 2.404253463719600e-04, 7.644001275662872e-03, 9.247091856272899e-03, -1.261360093355918e+00, 4.209287769836421e+01, 1.118265961161822e+01, 3.997092328687089e+05, 5.997731107636183e+03, 3.955445689134906e+04, 4.015805857593685e+05
350, 5.374259000000000e-02, -8.440148000000000e-03, 2.170211481125957e-04, 8.231115506445921e-03, 2.168309427595366e-02, -1.399582938833067e+00, 4.748545348420106e+01, 8.199010558010741e+00, 3.760220032793512e+05, 5.683459964569089e+03, 3.882735772652689e+04, 3.783925098315365e+05
351, 6.688208000000000e-02, -8.018835000000000e-03, 1.915809335110493e-04, 8.823136225091755e-03, 3.580884494127459e-02, -1.544513703834709e+00, 5.331217398608366e+01, 4.575054074480818e+00, 3.508956007175274e+05, 5.312210794930704e+03, 3.768543817874828e+04, 3.537070092510050e+05
352, 7.982535000000000e-02, -7.584165000000000e-03, 1.642567619392883e-04, 9.417670930610824e-03, 5.149987072087525e-02, -1.695311603373758e+00, 5.947231859720483e+01, 5.291819166915843e-01, 3.243681767640966e+05, 4.876143643315938e+03, 3.613261011072747e+04, 3.275628508871318e+05
353, 9.253454000000000e-02, -7.139249000000000e-03, 1.352220391776140e-04, 1.001220324624353e-02, 6.862225743959954e-02, -1.851137170081909e+00, 6.587103544983056e+01, -3.796070394945559e+00, 2.965038844419690e+05, 4.385376411579169e+03, 3.417343503059018e+04, 3.000075288739614e+05
354, 1.049722000000000e-01, -6.687137000000000e-03, 1.046744087139775e-04, 1.060408335820387e-02, 8.703926394607941e-02, -2.011082312236145e+00, 7.242653975400287e+01, -8.283823196189530e+00, 2.673866765892343e+05, 3.843343361784357e+03, 3.181264629516479e+04, 2.711148582166602e+05
355, 1.171021000000000e-01, -6.230763000000000e-03, 7.283290041395064e-05, 1.119057613756540e-02, 1.065993628071929e-01, -2.174166101130658e+00, 7.906125336181947e+01, -1.283271107782758e+01, 2.371459793470136e+05, 3.248092795283124e+03, 2.906057052831357e+04, 2.410109714745171e+05
356, 1.288884000000000e-01, -5.773013000000000e-03, 3.994169043823589e-05, 1.176883611063476e-02, 1.271293457732148e-01, -2.339339829432442e+00, 8.569852137436844e+01, -1.736741370554239e+01, 2.059584659631799e+05, 2.601668664456475e+03, 2.593685306944529e+04, 2.098686932254977e+05
357, 1.402968000000000e-01, -5.316684000000000e-03, 6.266202526302516e-06, 1.233598142514402e-02, 1.484392989350767e-01, -2.505516030662874e+00, 9.226634171364070e+01, -2.184525497932145e+01, 1.740287729595531e+05, 1.898960761359765e+03, 2.246767416241713e+04, 1.778984479315643e+05
358, 1.512935000000000e-01, -4.864536000000000e-03, -2.790542569700590e-05, 1.288906525251432e-02, 1.703241788672614e-01, -2.671561007018657e+00, 9.869961869515140e+01, -2.625425651154217e+01, 1.415491252845476e+05, 1.138628841055884e+03, 1.868123140429166e+04, 1.452964594841546e+05
359, 1.618466000000000e-01, -4.419268000000000e-03, -6.226846382186829e-05, 1.342516934486761e-02, 1.925681887938307e-01, -2.836323441722580e+00, 1.049419253928823e+02, -3.061017686287983e+01, 1.086948725456885e+05, 3.401888132863101e+02, 1.459675370810926e+04, 1.122185294949533e+05
360, 1.719248000000000e-01, -3.983556000000000e-03, -9.650125820676713e-05, 1.394136157810140e-02, 2.149446079966117e-01, -2.998626756099652e+00, 1.109449651853402e+02, -3.495301872976268e+01, 7.568853104143185e+04, -4.883332556092510e+02, 1.024142085302950e+04, 7.888258019667768e+04
361, 1.814989000000000e-01, -3.560046000000000e-03, -1.302694785346318e-04, 1.443480073313896e-02, 2.372214078698897e-01, -3.157306585751184e+00, 1.166696445360869e+02, -3.934476087435019e+01, 4.285712260696758e+04, -1.352144416312638e+03, 5.664259054776692e+03, 4.563764469485877e+04
362, 1.905404000000000e-01, -3.151355000000000e-03, -1.632279283333799e-04, 1.490270136485117e-02, 2.591628718026618e-01, -3.311202122014095e+00, 1.220854405802368e+02, -4.386452879812953e+01, 1.062417511323730e+04, -2.242365693785717e+03, 9.336626846334184e+02, 1.300133748402432e+04
363, 1.990233000000000e-01, -2.760025000000000e-03, -1.950306301295273e-04, 1.534246713112019e-02, 2.805374853496189e-01, -3.459199436904426e+00, 1.271713845295924e+02, -4.860329254939575e+01, -2.050147149389766e+04, -3.136777696180778e+03, -3.862761186598650e+03, 1.900569090107589e+04
364, 2.069223000000000e-01, -2.388589000000000e-03, -2.253312542111131e-04, 1.575164287361097e-02, 3.011178690106222e-01, -3.600212439388967e+00, 1.319144755949739e+02, -5.365430361175447e+01, -4.989285603981905e+04, -4.024014864419186e+03, -8.599993597728026e+03, 4.898765303929052e+04
365, 2.142143000000000e-01, -2.039626000000000e-03, -2.537892444266231e-04, 1.612804320008050e-02, 3.206862475179126e-01, -3.733217153857209e+00, 1.363094315666140e+02, -5.910203954788642e+01, -7.674645637501219e+04, -4.886720262477757e+03, -1.309213211669392e+04, 7.648161457243799e+04
366, 2.208774000000000e-01, -1.715579000000000e-03, -2.800861672122110e-04, 1.646975899702809e-02, 3.390390881561269e-01, -3.857236834560132e+00, 1.403563445299435e+02, -6.500564407374225e+01, -1.000306460245047e+05, -5.658342707476765e+03, -1.709402497541962e+04, 1.003740723135322e+05
367, 2.268939000000000e-01, -1.418304000000000e-03, -3.039631636428199e-04, 1.677537591790979e-02, 3.560036023479541e-01, -3.971395662223967e+00, 1.440602022027950e+02, -7.138250551852775e+01, -1.186005478577130e+05, -6.330935287232806e+03, -2.029571261098838e+04, 1.193822838962174e+05
368, 2.322460000000000e-01, -1.149879000000000e-03, -3.251849438597916e-04, 1.704381757481001e-02, 3.714154176129610e-01, -4.074833914224479e+00, 1.474242050709237e+02, -7.818362711491068e+01, -1.313065955165454e+05, -6.892442426509257e+03, -2.221736238532238e+04, 1.321110375954783e+05
369, 2.369133000000000e-01, -9.138651000000000e-04, -3.434865741411755e-04, 1.727428600354860e-02, 3.850874289097188e-01, -4.166646037518175e+00, 1.504418495371504e+02, -8.526546320798673e+01, -1.367991796799958e+05, -7.208917926346938e+03, -2.223519272448989e+04, 1.370082155323544e+05
370, 2.408804000000000e-01, -7.125407000000000e-04, -3.587354274073953e-04, 1.746669147412692e-02, 3.968755033952953e-01, -4.246004885742938e+00, 1.530996506981361e+02, -9.237390134025145e+01, -1.333542744558763e+05, -7.246631141946013e+03, -2.002465871307620e+04, 1.323143436234113e+05
371, 2.441551000000000e-01, -5.415768000000000e-04, -3.712110590511841e-04, 1.762250040959923e-02, 4.068218361263331e-01, -4.312519378550707e+00, 1.553961815146806e+02, -9.917372238459598e+01, -1.208492916968096e+05, -7.432647070939343e+03, -1.566362006368076e+04, 1.176636360656440e+05
372, 2.467325000000000e-01, -4.007940000000000e-04, -3.810295290245437e-04, 1.774287135028671e-02, 4.148654874444411e-01, -4.365558526916017e+00, 1.573001610478256e+02, -1.052223899520108e+02, -1.022139605939067e+05, -7.139016329608936e+03, -8.775428409986929e+03, 9.668131981915924e+04
373, 2.485345000000000e-01, -3.132200000000000e-04, -3.871994928735882e-04, 1.782574107497711e-02, 4.203149699846559e-01, -4.403044137727846e+00, 1.586590484187694e+02, -1.098640265742449e+02, -7.555864591608499e+04, -5.451479912805337e+03, -3.495349302437171e+02, 7.011065128553045e+04
374, 2.495362000000000e-01, -2.855885000000000e-04, -3.895825304251575e-04, 1.787141259321794e-02, 4.229244266912646e-01, -4.424041528643424e+00, 1.593821494003921e+02, -1.125890009456156e+02, -3.820635534480476e+04, 1.369517682917779e+03, 4.755321990246352e+02, 3.958729909195188e+04
375, 2.501265000000000e-01, -1.963230000000000e-04, -3.942799994016708e-04, 1.789819987787883e-02, 4.260062988778293e-01, -4.436279962724698e+00, 1.600190364991057e+02, -1.141611526430527e+02, -1.257453639819622e+04, 1.250849591340646e+04, -1.516693975265935e+04, 3.936118336366550e+04
376, -1.990233000000000e-01, -1.178851000000000e-02, 0.000000000000000e+00, 0.000000000000000e+00, 0.000000000000000e+00, 0.000000000000000e+00, 0.000000000000000e+00, 0.000000000000000e+00, 7.650792056840483e+06, 2.648298180297131e+06, 1.570935191367763e+06, 5.907308565392908e+06
377, -1.905404000000000e-01, -1.243298000000000e-02, 8.183579244670681e-05, 5.184209241826974e-05, -7.796615429936397e-03, -3.899717119018183e-03, 1.448964832110852e+00, 1.593698432374441e+00, 5.657899699349055e+06, -1.347790688627283e+05, -2.165042111007327e+05, 5.808840125652365e+06
378, -1.814989000000000e-01, -1.300915000000000e-02, 1.526251782220942e-04, 1.431590963618548e-04, -1.548945818328759e-02, -1.166998726949961e-02, 2.100520644659573e+00, 3.731910476158214e+00, 4.743746518479901e+06, 2.839823982188543e+05, -8.890481471758662e+04, 4.463307324472254e+06
379, -1.719248000000000e-01, -1.351448000000000e-02, 2.176636041582672e-04, 2.868839865681490e-04, -2.327401482026834e-02, -2.535121553525465e-02, 2.319546964091862e+00, 6.147386604435290e+00, 3.962558214720838e+06, 1.732442507914200e+05, -3.644323810396271e+04, 3.790014875385648e+06
380, -1.618466000000000e-01, -1.394718000000000e-02, 2.753074617677136e-04, 4.790005542468295e-04, -3.079937735841499e-02, -4.514644617314689e-02, 2.266517515588233e+00, 8.465700144207846e+00, 3.306970120797339e+06, 1.635593497262124e+05, 7.296088642479532e+03, 3.143444640410244e+06
381, -1.512935000000000e-01, -1.430588000000000e-02, 3.253635650632268e-04, 7.163640826844617e-04, -3.786705177561576e-02, -7.128251016565866e-02, 2.111431530894357e+00, 1.042153001754058e+01, 2.756581232019841e+06, 1.363233829433975e+05, 3.364869822577201e+04, 2.621121922997071e+06
382, -1.402968000000000e-01, -1.459006000000000e-02, 3.678428729386981e-04, 9.955754085972308e-04, -4.430279442209479e-02, -1.039139715298890e-01, 2.018612378162523e+00, 1.182962871305437e+01, 2.299982763481459e+06, 1.177016567182260e+05, 4.847432956032525e+04, 2.184433535597056e+06
383, -1.288884000000000e-01, -1.479966000000000e-02, 4.028246010045848e-04, 1.313288053100647e-03, -4.994368863597541e-02, -1.431499139052727e-01, 2.145454408393324e+00, 1.259738358815390e+01, 1.917399148262197e+06, 1.011134878306118e+05, 5.565545490839318e+04, 1.819693303535967e+06
384, -1.171021000000000e-01, -1.493550000000000e-02, 4.305051645382374e-04, 1.666106035695979e-03, -5.464190656758179e-02, -1.890375086768346e-01, 2.640430989010717e+00, 1.273540854036456e+01, 1.597411632963755e+06, 8.716446708548516e+04, 5.758167711883454e+04, 1.514631671464260e+06
385, -1.049722000000000e-01, -1.499882000000000e-02, 4.511849900405519e-04, 2.050682528490115e-03, -5.827249584977204e-02, -2.415667732995206e-01, 3.623512859879497e+00, 1.236490502119824e+01, 1.331614579770527e+06, 7.527285351918709e+04, 5.611519509350331e+04, 1.261344597483861e+06
386, -9.253454000000000e-02, -1.499170000000000e-02, 4.652820859518931e-04, 2.463736554912120e-03, -6.074704729505511e-02, -3.006839383400327e-01, 5.159315242967505e+00, 1.168817835534823e+01, 1.114692474208087e+06, 6.536196576108487e+04, 5.262599460563144e+04, 1.054595892837903e+06
387, -7.982535000000000e-02, -1.491658000000000e-02, 4.733238652949077e-04, 2.902155468615423e-03, -6.200941905947650e-02, -3.663310040693767e-01, 7.256633283456019e+00, 1.092015467384876e+01, 9.440728953590392e+05, 5.741406835388309e+04, 4.827009115626765e+04, 8.918990314531666e+05
388, -6.688208000000000e-02, -1.477656000000000e-02, 4.759681310708174e-04, 3.363063789375335e-03, -6.201896764566794e-02, -4.384573007585195e-01, 9.907064070840438e+00, 1.024679193144942e+01, 8.193999944781242e+05, 5.143469062574278e+04, 4.414501252590212e+04, 7.730238265698728e+05
389, -5.374259000000000e-02, -1.457506000000000e-02, 4.739882878472040e-04, 3.843998174279595e-03, -6.076036799817519e-02, -5.170029537296299e-01, 1.309365864771738e+01, 9.863590988856870e+00, 7.398448233419085e+05, 4.710616338587972e+04, 4.139034042563505e+04, 6.976671786173363e+05
390, -4.044550000000000e-02, -1.431595000000000e-02, 4.681933928738640e-04, 4.343076417872260e-03, -5.829196579676417e-02, -6.019407956943187e-01, 1.673361627349978e+01, 9.962656401917329e+00, 6.979898306496376e+05, 4.365784115594353e+04, 4.074867241518920e+04, 6.593877233382325e+05
391, -2.702974000000000e-02, -1.400332000000000e-02, 4.591846999842816e-04, 4.859058630631076e-03, -5.474231195621096e-02, -6.934146578876461e-01, 2.066100984566673e+01, 1.059209353484641e+01, 6.771869966835766e+05, 4.128469440082459e+04, 4.178978114430758e+04, 6.413714066598704e+05
392, -1.353473000000000e-02, -1.364154000000000e-02, 4.471773262557792e-04, 5.390934671366970e-03, -5.022695542913322e-02, -7.918193082378878e-01, 2.469131395210714e+01, 1.155992655767332e+01, 6.598465712734576e+05, 4.020904467981460e+04, 4.324199463220579e+04, 6.256437842432181e+05
393, -9.637083000000000e-13, -1.323506000000000e-02, 4.321392480604419e-04, 5.937427961665655e-03, -4.475204883863793e-02, -8.977403778471394e-01, 2.870213530923877e+01, 1.244002672761513e+01, 6.377704426517409e+05, 3.935684109286885e+04, 4.423758747399805e+04, 6.049187508357952e+05
394, 1.353473000000000e-02, -1.278846000000000e-02, 4.140493016859125e-04, 6.496920427180386e-03, -3.814610326159198e-02, -1.011779791084478e+00, 3.271758840719667e+01, 1.266917119549342e+01, 6.114425642348155e+05, 3.808256658618634e+04, 4.463426187845686e+04, 5.802676591344505e+05
395, 2.702974000000000e-02, -1.230631000000000e-02, 3.929699433710828e-04, 7.067592029123706e-03, -3.006370389933441e-02, -1.134260719494778e+00, 3.693578421181670e+01, 1.180316080598834e+01, 5.828813006269138e+05, 3.645618889073449e+04, 4.453357670002523e+04, 5.536364877342209e+05
396, 4.044550000000000e-02, -1.179317000000000e-02, 3.690122002490179e-04, 7.647491906262086e-03, -2.013977637355419e-02, -1.264971263547580e+00, 4.160200680368288e+01, 9.761809118744679e+00, 5.526150098360416e+05, 3.465722884389383e+04, 4.397543652452344e+04, 5.253718863437588e+05
397, 5.374259000000000e-02, -1.125353000000000e-02, 3.423077907357407e-04, 8.234522920103553e-03, -8.196973585340606e-03, -1.403218363934471e+00, 4.682676787369699e+01, 6.787704842997698e+00, 5.204303401479835e+05, 3.271938242750673e+04, 4.295631747674899e+04, 4.952201117940160e+05
398, 6.688208000000000e-02, -1.069178000000000e-02, 3.130102978861097e-04, 8.826443586731838e-03, 5.718093950064340e-03, -1.548145880322420e+00, 5.255314756677931e+01, 3.185700494122273e+00, 4.862332422767393e+05, 3.061701521461246e+04, 4.147713329079706e+04, 4.631064204979430e+05
399, 7.982535000000000e-02, -1.011222000000000e-02, 2.813016242947099e-04, 9.420862021202243e-03, 2.146026439147319e-02, -1.698913957637636e+00, 5.865931775042873e+01, -8.276387562817717e-01, 4.500857971142195e+05, 2.834725911531074e+04, 3.954277375194708e+04, 4.290896389537362e+05
400, 9.253454000000000e-02, -9.518999000000000e-03, 2.473898731338338e-04, 1.001526260958386e-02, 3.888198024293127e-02, -1.854681592652750e+00, 6.503665497269552e+01, -5.109468533765437e+00, 4.120743320830078e+05, 2.592064753741350e+04, 3.715937394539778e+04, 3.932403137728812e+05
401, 1.049722000000000e-01, -8.916182000000000e-03, 2.115126887783429e-04, 1.060699652995950e-02, 5.783880571493999e-02, -2.014540652568956e+00, 7.159640329610468e+01, -9.543574661333594e+00, 3.723114075638293e+05, 2.334649109086246e+04, 3.433684783569706e+04, 3.556579668813169e+05
402, 1.171021000000000e-01, -8.307683999999999e-03, 1.739341309911020e-04, 1.119332991637931e-02, 7.816952220110995e-02, -2.177511642406118e+00, 7.825471860473093e+01, -1.403014454591681e+01, 3.309753216927742e+05, 2.063369058715967e+04, 3.109406796070388e+04, 3.165111249966939e+05
403, 1.288884000000000e-01, -7.697351000000000e-03, 1.349492342764370e-04, 1.177141882724770e-02, 9.968662796762484e-02, -2.342547848578359e+00, 8.492787573211746e+01, -1.849552283859458e+01, 2.883107782996542e+05, 1.779729048894589e+04, 2.745604388341939e+04, 2.760305861139798e+05
404, 1.402968000000000e-01, -7.088912000000000e-03, 9.487972320944255e-05, 1.233838320002689e-02, 1.221826387549119e-01, -2.508564085256799e+00, 9.153726916209962e+01, -2.289857685222978e+01, 2.446042029825290e+05, 1.484941129240027e+04, 2.345620503525445e+04, 2.344952846502420e+05
405, 1.512935000000000e-01, -6.486048000000000e-03, 5.407605533618460e-05, 1.289127819629979e-02, 1.454322224972684e-01, -2.674429365438448e+00, 9.801251405061282e+01, -2.722884148538913e+01, 2.001254086490022e+05, 1.180409747977866e+04, 1.911826523672765e+04, 1.921638584727706e+05
406, 1.618466000000000e-01, -5.892357000000000e-03, 1.290984891509717e-05, 1.342718769065155e-02, 1.691966818473206e-01, -2.838995536813567e+00, 1.042932358696509e+02, -3.150359211982800e+01, 1.551084209261716e+05, 8.688010917858346e+03, 1.446500303734098e+04, 1.492510694048243e+05
407, 1.719248000000000e-01, -5.311408000000000e-03, -2.822557821851466e-05, 1.394318194443024e-02, 1.932234220482451e-01, -3.001089571133131e+00, 1.103283530312141e+02, -3.576431556887485e+01, 1.098568362019571e+05, 5.526838973047945e+03, 9.538216169392923e+03, 1.060596935341625e+05
408, 1.814989000000000e-01, -4.746728000000000e-03, -6.891979355295895e-05, 1.443642240447514e-02, 2.172519952537053e-01, -3.159550902148018e+00, 1.160771121121876e+02, -4.007436627670393e+01, 6.482516577174370e+04, 2.345318033671054e+03, 4.403581191876830e+03, 6.309752358553025e+04
409, 1.905404000000000e-01, -4.201807000000000e-03, -1.087473024975689e-04, 1.490412646882725e-02, 2.410161419756306e-01, -3.313222673235415e+00, 1.215085120881811e+02, -4.451409286576416e+01, 2.059776858671946e+04, -8.171915894122558e+02, -8.592287918831935e+02, 2.148379891482210e+04
410, 1.990233000000000e-01, -3.680033000000000e-03, -1.472796537688814e-04, 1.534370069989290e-02, 2.642526496428723e-01, -3.460994926369558e+00, 1.266023464841276e+02, -4.917549595743549e+01, -2.212896055713298e+04, -3.900430486547874e+03, -6.145994082212419e+03, 2.198572904337233e+04
411, 2.069223000000000e-01, -3.184785000000000e-03, -1.840856459839210e-04, 1.575269291764448e-02, 2.867014864432651e-01, -3.601785511184891e+00, 1.313475979614058e+02, -5.415267806453858e+01, -6.249702610895780e+04, -6.847028961619799e+03, -1.131101109532641e+04, 6.007227372501491e+04
412, 2.142143000000000e-01, -2.719501000000000e-03, -2.187381135045282e-04, 1.612892068813427e-02, 3.081117931629398e-01, -3.734574296230087e+00, 1.357421139345162e+02, -5.953080411090423e+01, -9.940590882688973e+04, -9.580368794448212e+03, -1.614101782783865e+04, 9.545028794191337e+04
413, 2.208774000000000e-01, -2.287439000000000e-03, -2.508347836078820e-04, 1.647047761538066e-02, 3.282481803991447e-01, -3.858388098768187e+00, 1.397900409081973e+02, -6.536952305917339e+01, -1.314416394694675e+05, -1.195748374266457e+04, -2.036140550248616e+04, 1.262331604844527e+05
414, 2.268939000000000e-01, -1.891072000000000e-03, -2.800458558431813e-04, 1.677595155515703e-02, 3.469106732126968e-01, -3.972354026835972e+00, 1.435010479287057e+02, -7.168649979223574e+01, -1.570337266851565e+05, -1.389251312949592e+04, -2.364462755697535e+04, 1.507503919312303e+05
415, 2.322460000000000e-01, -1.533172000000000e-03, -3.060667752847009e-04, 1.704426791496083e-02, 3.639075014406196e-01, -4.075615188031572e+00, 1.468827669928385e+02, -7.843303302436345e+01, -1.746099997290942e+05, -1.529423382749490e+04, -2.548918957423589e+04, 1.672731550650568e+05
416, 2.369133000000000e-01, -1.218487000000000e-03, -3.285475589437585e-04, 1.727463047345541e-02, 3.790156146878693e-01, -4.167269583386397e+00, 1.499313473658138e+02, -8.546621482341220e+01, -1.823304327182979e+05, -1.592568503166266e+04, -2.524477982703497e+04, 1.738957609797163e+05
417, 2.408804000000000e-01, -9.500542000000000e-04, -3.473048748288849e-04, 1.746695010919710e-02, 3.920636293204233e-01, -4.246492482320098e+00, 1.526340404103492e+02, -9.253236560061032e+01, -1.778431600368358e+05, -1.564546925588132e+04, -2.255363659801729e+04, 1.683530724099083e+05
418, 2.441551000000000e-01, -7.221023000000000e-04, -3.626887111377099e-04, 1.762269063378755e-02, 4.031110032220127e-01, -4.312890562296021e+00, 1.549909190909869e+02, -9.929540182825485e+01, -1.609081095276153e+05, -1.492625277909144e+04, -1.756971765480360e+04, 1.501515315060909e+05
419, 2.467325000000000e-01, -5.343920000000000e-04, -3.748318171082547e-04, 1.774300857388766e-02, 4.120864232868323e-01, -4.365833374331941e+00, 1.569662809798329e+02, -1.053131172226593e+02, -1.357369743371133e+05, -1.337190560281595e+04, -1.011892795084231e+04, 1.240273391549083e+05
420, 2.485345000000000e-01, -4.176267000000000e-04, -3.824168170292514e-04, 1.782584691628036e-02, 4.181257505309561e-01, -4.403258818343317e+00, 1.583791204266165e+02, -1.099351541884469e+02, -1.002269183098450e+05, -9.430600939243523e+03, -6.213398571651414e+02, 9.080482091241301e+04
421, 2.495362000000000e-01, -3.807847000000000e-04, -3.852454073035444e-04, 1.787150923509845e-02, 4.209218269010054e-01, -4.424236986439844e+00, 1.591195053586397e+02, -1.126538282296065e+02, -4.740947503365786e+04, 2.041509501608107e+02, 2.782894784149810e+03, 4.793782841186661e+04
422, 2.500000000000000e-01, -3.150000000000000e-04, -3.887363347008521e-04, 1.789255994964481e-02, 4.232520063767909e-01, -4.433861817922559e+00, 1.596087401774882e+02, -1.138924156846300e+02, -9.988997433880959e+03, 1.648789830701232e+04, -1.356189102780833e+04, 3.790416284624586e+04
