"PointID","x","y","Displacement_x","Displacement_y","Velocity_x","Velocity_y","Acceleration_x","Acceleration_y","Sxx","Syy","Sxy","Von_Mises_Stress"
0, -1.990233000000000e-01, 1.178851000000000e-02, 0.000000000000000e+00, 0.000000000000000e+00, 0.000000000000000e+00, 0.000000000000000e+00, 0.000000000000000e+00, 0.000000000000000e+00, -6.909256055795906e+06, -2.407988359205061e+06, 1.492446271224104e+06, 5.401017900945634e+06
1, -1.905404000000000e-01, 1.243298000000000e-02, -7.331276742409883e-05, 4.969664079699175e-05, -4.775544952663056e-03, 2.562661377670496e-03, -1.830034893327324e-01, -1.008501248716172e+00, -4.877821968484360e+06, 1.784514914748145e+05, -2.460769481154666e+05, 5.080168969577962e+06
2, -1.814989000000000e-01, 1.300915000000000e-02, -1.336070497668581e-04, 1.324264258522174e-04, -9.462459004583916e-03, 8.232885089870436e-03, -1.469252640108526e+00, -8.401051456947188e-01, -3.840902331524351e+06, -1.948202486625240e+05, -1.347452016207059e+05, 3.656027848964674e+06
3, -1.719248000000000e-01, 1.351448000000000e-02, -1.869200686122647e-04, 2.577824405916952e-04, -1.415842452980210e-02, 1.778813896342260e-02, -3.442750381376893e+00, 8.587386983183380e-01, -2.972396130187437e+06, -7.979454268627391e+04, -9.544643307737488e+04, 2.898893587278262e+06
4, -1.618466000000000e-01, 1.394718000000000e-02, -2.320570427256906e-04, 4.202817382063079e-04, -1.879740422647396e-02, 3.105234881364198e-02, -6.059941748707045e+00, 4.397947363272621e+00, -2.240278553977236e+06, -6.226380540179148e+04, -5.402627469153881e+04, 2.180693375612523e+06
5, -1.512935000000000e-01, 1.430588000000000e-02, -2.689656470048880e-04, 6.150473728086315e-04, -2.336445890463166e-02, 4.790298023074901e-02, -9.246579592026766e+00, 1.006857561937608e+01, -1.614623325089421e+06, -2.860713482873356e+04, -2.409718115638080e+04, 1.586748263691428e+06
6, -1.402968000000000e-01, 1.459006000000000e-02, -2.977347457078919e-04, 8.368229684081685e-04, -2.783323029204837e-02, 6.814353058046382e-02, -1.290398697383873e+01, 1.806921534669629e+01, -1.082514110585595e+06, -4.167869073800204e+03, -2.811259079773154e+03, 1.078360899371388e+06
7, -1.288884000000000e-01, 1.479966000000000e-02, -3.184686558468589e-04, 1.080296441096400e-03, -3.216901977172779e-02, 9.151702913708755e-02, -1.692301761913005e+01, 2.850165511519472e+01, -6.225029939904895e+05, 1.761676400956421e+04, 1.184311836594057e+04, 6.405578368832638e+05
8, -1.171021000000000e-01, 1.493550000000000e-02, -3.313430675876864e-04, 1.340003906727409e-03, -3.633683967554094e-02, 1.176873036261479e-01, -2.119002109770834e+01, 4.134839144852474e+01, -2.214367977601383e+05, 3.631979883218516e+04, 2.103460984764060e+04, 2.611671540079793e+05
9, -1.049722000000000e-01, 1.499882000000000e-02, -3.366028519945120e-04, 1.610411721219920e-03, -4.030885118764407e-02, 1.462218323447814e-01, -2.560345925210070e+01, 5.642973581352345e+01, 1.309721870121067e+05, 5.273721073429954e+04, 2.576355755713477e+04, 9.367900034259667e+04
10, -9.253454000000000e-02, 1.499170000000000e-02, -3.345787573064594e-04, 1.885925611934803e-03, -4.408329544220611e-02, 1.765833563550467e-01, -3.011537240016753e+01, 7.338435805626682e+01, 4.422608356570401e+05, 6.720024104064154e+04, 2.675931870251898e+04, 3.788597289020018e+05
11, -7.982535000000000e-02, 1.491658000000000e-02, -3.256833942040495e-04, 2.160958704343481e-03, -4.770407923949388e-02, 2.081953511111910e-01, -3.477510089512305e+01, 9.181687853929490e+01, 7.179211077410042e+05, 8.003536017103906e+04, 2.461277146364940e+04, 6.397822919004408e+05
12, -6.688208000000000e-02, 1.477656000000000e-02, -3.104247031269539e-04, 2.429962248197359e-03, -5.121870125293940e-02, 2.406191261420695e-01, -3.965246042282011e+01, 1.116473290626898e+02, 9.616816464692662e+05, 9.149648566530236e+04, 1.979316225001797e+04, 8.710851228042196e+05
13, -5.374259000000000e-02, 1.457506000000000e-02, -2.894056432172012e-04, 2.687501622320443e-03, -5.466140767168945e-02, 2.732367200924540e-01, -4.476928399223075e+01, 1.326375994811386e+02, 1.175658287229659e+06, 1.016708109534204e+05, 1.271810899199244e+04, 1.074288648540761e+06
14, -4.044550000000000e-02, 1.431595000000000e-02, -2.633358885253474e-04, 2.928323150906840e-03, -5.814719774244959e-02, 3.052697119640886e-01, -5.025387468733987e+01, 1.542319475094224e+02, 1.360425803648922e+06, 1.101087975909799e+05, 3.801677422552719e+03, 1.250340124383200e+06
15, -2.702974000000000e-02, 1.400332000000000e-02, -2.330309542793567e-04, 3.147473709781358e-03, -6.193743480232605e-02, 3.360127837592205e-01, -5.638748799074813e+01, 1.762867652149345e+02, 1.515693673403503e+06, 1.165940876189368e+05, -6.535092337006747e+03, 1.399160634334013e+06
16, -1.353473000000000e-02, 1.364154000000000e-02, -1.994078400712958e-04, 3.340413805951863e-03, -6.638655812187827e-02, 3.651722201066143e-01, -6.345217021520752e+01, 1.990698718309823e+02, 1.640607885186643e+06, 1.217167535766598e+05, -1.783681789574711e+04, 1.519310000616740e+06
17, -9.637083000000000e-13, 1.323506000000000e-02, -1.634789303679046e-04, 3.503123401323857e-03, -7.179335145699184e-02, 3.928710794660537e-01, -7.164679035227344e+01, 2.230804060561884e+02, 1.733014735783722e+06, 1.257913309440334e+05, -2.962649912184358e+04, 1.608315264761653e+06
18, 1.353473000000000e-02, 1.278846000000000e-02, -1.263577838735168e-04, 3.632232297675785e-03, -7.827644777452947e-02, 4.195276523148037e-01, -8.096700526211589e+01, 2.492004233277137e+02, 1.789102775887789e+06, 1.291607796380918e+05, -4.131291562905285e+04, 1.661997129631854e+06
19, 2.702974000000000e-02, 1.230631000000000e-02, -8.926596689095488e-05, 3.725170685145076e-03, -8.574040110559028e-02, 4.454703788516992e-01, -9.111928149799705e+01, 2.781300393521064e+02, 1.802811091931191e+06, 1.292357102962686e+05, -5.201069098938553e+04, 1.676804999373287e+06
20, 4.044550000000000e-02, 1.179317000000000e-02, -5.350853364603601e-05, 3.780442062994100e-03, -9.401870097271880e-02, 4.705348201295285e-01, -1.017039186213754e+02, 3.098039319091749e+02, 1.769323227529390e+06, 1.198745849341124e+05, -6.040808542051056e+04, 1.653867398462190e+06
21, 5.374259000000000e-02, 1.125353000000000e-02, -2.031905633717234e-05, 3.798015577454386e-03, -1.030752861180987e-01, 4.942660068223894e-01, -1.124841392368352e+02, 3.436007832457122e+02, 1.695297297401415e+06, 9.628338083854520e+04, -6.673611207305230e+04, 1.604574815949769e+06
22, 6.688208000000000e-02, 1.069178000000000e-02, 9.502964914019422e-06, 3.779458600360557e-03, -1.129639006362111e-01, 5.166055982195985e-01, -1.234062756963742e+02, 3.790844571575527e+02, 1.608756782960014e+06, 8.391365147629043e+04, -7.120668331789962e+04, 1.531479070255167e+06
23, 7.982535000000000e-02, 1.011222000000000e-02, 3.564156343747731e-05, 3.726568521699137e-03, -1.236871883732739e-01, 5.376272421109118e-01, -1.344529885731349e+02, 4.159676702139387e+02, 1.524078418523033e+06, 8.172982047933862e+04, -7.385317124878499e+04, 1.449891941453783e+06
24, 9.253454000000000e-02, 9.518999000000000e-03, 5.797249978333836e-05, 3.641145268443981e-03, -1.351967611786590e-01, 5.573734147884724e-01, -1.455886108766209e+02, 4.539740922047184e+02, 1.441423258997727e+06, 8.050906841429196e+04, -7.552555781472159e+04, 1.369271292938060e+06
25, 1.049722000000000e-01, 8.916182000000000e-03, 7.641332759356132e-05, 3.525249942447981e-03, -1.474192751531503e-01, 5.758655749203092e-01, -1.567605475871905e+02, 4.928053503502019e+02, 1.358491522504737e+06, 7.721308576316535e+04, -7.650624306452936e+04, 1.290382599607698e+06
26, 1.171021000000000e-01, 8.307683999999999e-03, 9.091443906913599e-05, 3.381290150069540e-03, -1.602702722605867e-01, 5.931386394685383e-01, -1.679121265386636e+02, 5.321673602085832e+02, 1.274699884802133e+06, 7.273086161723008e+04, -7.672327708603368e+04, 1.211724134315790e+06
27, 1.288884000000000e-01, 7.697351000000000e-03, 1.014862269618618e-04, 3.211991467888813e-03, -1.736533991583447e-01, 6.092491552217068e-01, -1.789858968560541e+02, 5.717863329918739e+02, 1.190838665181834e+06, 6.825603972335189e+04, -7.615465889969406e+04, 1.132867988456631e+06
28, 1.402968000000000e-01, 7.088912000000000e-03, 1.082135166148910e-04, 3.020315182170555e-03, -1.874590118476588e-01, 6.242674435108184e-01, -1.899230841332667e+02, 6.114137374378682e+02, 1.107877526046358e+06, 6.396916258571677e+04, -7.488855285080073e+04, 1.054598431961390e+06
29, 1.512935000000000e-01, 6.486048000000000e-03, 1.112510633851081e-04, 2.809425245502157e-03, -2.015642714822903e-01, 6.382668235749303e-01, -2.006620008417999e+02, 6.508192326884113e+02, 1.026550709942412e+06, 5.967585079583047e+04, -7.304432357911881e+04, 9.778491121222365e+05
30, 1.618466000000000e-01, 5.892357000000000e-03, 1.108151493141921e-04, 2.582629067583978e-03, -2.158389626181156e-01, 6.513223337714238e-01, -2.111408409951031e+02, 6.897942770164378e+02, 9.474865620905670e+05, 5.530240607249513e+04, -7.075170436259697e+04, 9.033359192075384e+05
31, 1.719248000000000e-01, 5.311408000000000e-03, 1.071775105300940e-04, 2.343365600860645e-03, -2.301473737864024e-01, 6.635107264440308e-01, -2.212982528494909e+02, 7.281482355880205e+02, 8.713641921046015e+05, 5.093057471381967e+04, -6.812770151647218e+04, 8.316711221393913e+05
32, 1.814989000000000e-01, 4.746728000000000e-03, 1.006599894680384e-04, 2.095131771588793e-03, -2.443525403108942e-01, 6.749126305751374e-01, -2.310760884466900e+02, 7.657144194071112e+02, 7.988582438223144e+05, 4.665082776425558e+04, -6.530494564301881e+04, 7.634624682815078e+05
33, 1.905404000000000e-01, 4.201807000000000e-03, 9.162657182323417e-05, 1.841475565364408e-03, -2.583161063490544e-01, 6.856096933321392e-01, -2.404181300706625e+02, 8.023436278315737e+02, 7.305199398677115e+05, 4.249703091229124e+04, -6.239541243113490e+04, 6.992483630422628e+05
34, 1.990233000000000e-01, 3.680033000000000e-03, 8.047262529153720e-05, 1.585915225155560e-03, -2.719030783503431e-01, 6.956860789891484e-01, -2.492720700698239e+02, 8.379082798530378e+02, 6.666871505135903e+05, 3.848228495035825e+04, -5.950749966168978e+04, 6.393793265200733e+05
35, 2.069223000000000e-01, 3.184785000000000e-03, 6.761838077314529e-05, 1.331964920081005e-03, -2.849805123964986e-01, 7.052246417063537e-01, -2.575873716349396e+02, 8.722892859476474e+02, 6.074399647451633e+05, 3.461275838430717e+04, -5.667779395190637e+04, 5.839353540043640e+05
36, 2.142143000000000e-01, 2.719501000000000e-03, 5.350361921342926e-05, 1.083078228641598e-03, -2.974208760309744e-01, 7.143045963640682e-01, -2.653169367483831e+02, 9.053720450591230e+02, 5.524744705456526e+05, 3.086677338140722e+04, -5.390496544249171e+04, 5.326326791874603e+05
37, 2.208774000000000e-01, 2.287439000000000e-03, 3.857476141611093e-05, 8.426810617453960e-04, -3.091003856106800e-01, 7.229932381795132e-01, -2.724144938820211e+02, 9.370271877936033e+02, 5.010490796572287e+05, 2.721647635606395e+04, -5.110164933786110e+04, 4.847296671458823e+05
38, 2.268939000000000e-01, 1.891072000000000e-03, 2.325720092389121e-05, 6.140749894358803e-04, -3.199041815317567e-01, 7.313389990400960e-01, -2.788358119099449e+02, 9.671053360437872e+02, 4.521072947540402e+05, 2.360327825283018e+04, -4.809181459367060e+04, 4.391662358165950e+05
39, 2.322460000000000e-01, 1.533172000000000e-03, 7.995520057817234e-06, 4.006113632370171e-04, -3.297206542827669e-01, 7.393498686261228e-01, -2.845390083560461e+02, 9.953918138494751e+02, 4.044145426208790e+05, 1.990073849368933e+04, -4.434671163360645e+04, 3.946104267441748e+05
40, 2.369133000000000e-01, 1.218487000000000e-03, -6.667247025083759e-06, 2.058425582185573e-04, -3.384396568116810e-01, 7.469684355843595e-01, -2.894923269919303e+02, 1.021560683259971e+03, 3.558073781566796e+05, 1.583629556662093e+04, -3.912346505982467e+04, 3.488594546097407e+05
41, 2.408804000000000e-01, 9.500542000000000e-04, -2.022991533987038e-05, 3.326645151645766e-05, -3.459633298558340e-01, 7.540699057293994e-01, -2.936689966558483e+02, 1.045189044507285e+03, 3.029112817722841e+05, 1.148870951807428e+04, -3.208441861100179e+04, 2.984036784117852e+05
42, 2.441551000000000e-01, 7.221023000000000e-04, -3.257404400981895e-05, -1.145288832889306e-04, -3.522325250976752e-01, 7.605011843148475e-01, -2.970318475890882e+02, 1.065872527934316e+03, 2.452617064247233e+05, 7.247056404741608e+03, -2.358473608397266e+04, 2.426436331922536e+05
43, 2.467325000000000e-01, 5.343920000000000e-04, -4.332194194724618e-05, -2.344839407253728e-04, -3.571840924501215e-01, 7.660091511889968e-01, -2.995712914990257e+02, 1.083032139837104e+03, 1.879964297880824e+05, 2.294237317168124e+03, -1.269496983068125e+04, 1.874298624139498e+05
44, 2.485345000000000e-01, 4.176267000000000e-04, -5.053902979784710e-05, -3.203229983609623e-04, -3.606857656833309e-01, 7.700838514209947e-01, -3.014013568581857e+02, 1.095508780702828e+03, 1.243892272206176e+05, -4.430842854859879e+03, 4.910317044143230e+02, 1.288238134150278e+05
45, 2.495362000000000e-01, 3.807847000000000e-04, -5.336287208240476e-05, -3.686570166950238e-04, -3.626898929098865e-01, 7.723721701167854e-01, -3.025874781143194e+02, 1.102561193187426e+03, 4.836612503153521e+04, -5.034409179049319e+03, 4.502453329617919e+03, 5.415445870763883e+04
46, 2.500000000000000e-01, 3.150000000000000e-04, -5.708341009021807e-05, -3.910372157568279e-04, -3.635039095872685e-01, 7.735420282409411e-01, -3.027818300884823e+02, 1.105912636567391e+03, 1.596155284325949e+04, 7.614896704399708e+03, 2.649912530019619e+02, 8.363465200324317e+03
47, -1.990233000000000e-01, 8.841386000000000e-03, 0.000000000000000e+00, 0.000000000000000e+00, 0.000000000000000e+00, 0.000000000000000e+00, 0.000000000000000e+00, 0.000000000000000e+00, -4.517078680035273e+06, -1.567234352853631e+06, 1.245237548715940e+06, 3.860576092441910e+06
48, -1.905404000000000e-01, 9.324733000000000e-03, -4.799751077476960e-05, 4.141333664846723e-05, -3.098482457742607e-03, 2.064411484591424e-03, -1.930604874872983e-01, -9.811566003193658e-01, -3.470664938533009e+06, 3.097458117950691e+05, -1.456066878025333e+04, 3.780522912706312e+06
49, -1.814989000000000e-01, 9.756861000000000e-03, -9.637820907511072e-05, 1.272557577651671e-04, -6.584922048579580e-03, 7.948157946317289e-03, -9.292291190693502e-01, -8.186121407324300e-01, -2.963989266488223e+06, 2.662737745326757e+04, 3.551451869459938e+04, 2.991460017311330e+06
50, -1.719248000000000e-01, 1.013586000000000e-02, -1.368596716059054e-04, 2.534899595575847e-04, -1.001186838015207e-02, 1.762272235371628e-02, -2.307456270909795e+00, 9.369192577779053e-01, -2.227637404336827e+06, 5.584300980927760e+04, 4.824323722910315e+04, 2.285517981014859e+06
51, -1.618466000000000e-01, 1.046039000000000e-02, -1.714541019069342e-04, 4.171952658265707e-04, -1.348804967403132e-02, 3.105081982839649e-02, -4.257852543936280e+00, 4.562672147323887e+00, -1.679461123203507e+06, 5.056119032448107e+04, 6.191306766189801e+04, 1.734448072758006e+06
52, -1.512935000000000e-01, 1.072941000000000e-02, -1.998617558252343e-04, 6.129656692049655e-04, -1.699523050262040e-02, 4.807589554063205e-02, -6.733094067583560e+00, 1.034929568487724e+01, -1.208321619290123e+06, 5.067503375213765e+04, 7.000753683548892e+04, 1.266758379970981e+06
53, -1.402968000000000e-01, 1.094255000000000e-02, -2.221879210579922e-04, 8.356517498681920e-04, -2.052706186168203e-02, 6.850499890683064e-02, -9.667608252560248e+00, 1.849052177775969e+01, -8.085636060254266e+05, 4.969580756244128e+04, 7.422590722782817e+04, 8.710035374367705e+05
54, -1.288884000000000e-01, 1.109975000000000e-02, -2.385030745359476e-04, 1.079919776168949e-03, -2.406784380984044e-02, 9.207478442922681e-02, -1.298756275323096e+01, 2.907982671903821e+01, -4.638961327714934e+05, 4.870015011400800e+04, 7.517441262183274e+04, 5.341907135847489e+05
55, -1.171021000000000e-01, 1.120162000000000e-02, -2.489292110850575e-04, 1.340313056008336e-03, -2.760376811080728e-02, 1.184431304727709e-01, -1.662091913442416e+01, 4.208815018451273e+01, -1.640160730515808e+05, 4.768225794052336e+04, 7.335821599653579e+04, 2.575692038300000e+05
56, -1.049722000000000e-01, 1.124912000000000e-02, -2.536346123202450e-04, 1.611300492279614e-03, -3.112926875509216e-02, 1.471737561028393e-01, -2.051309282441844e+01, 5.732746543364335e+01, 9.897845375916638e+04, 4.669313213831984e+04, 6.917706323528980e+04, 1.479040877340194e+05
57, -9.253454000000000e-02, 1.124378000000000e-02, -2.528472928498776e-04, 1.887293104030991e-03, -3.465563764615484e-02, 1.777319615877759e-01, -2.464477786062826e+01, 7.444332027806593e+01, 3.309044895250780e+05, 4.576061490852470e+04, 6.292992506611587e+04, 3.116853078132629e+05
58, -7.982535000000000e-02, 1.118743000000000e-02, -2.468566770742896e-04, 2.162709841753688e-03, -3.820277590231597e-02, 2.095566444509778e-01, -2.902147501500488e+01, 9.306899604453666e+01, 5.359630381959579e+05, 4.492874550923675e+04, 5.485538063774962e+04, 5.031412602182393e+05
59, -6.688208000000000e-02, 1.108242000000000e-02, -2.360255482345990e-04, 2.432008373611663e-03, -4.181059268247220e-02, 2.421707920128875e-01, -3.368259089900958e+01, 1.130678664727245e+02, 7.169946507630672e+05, 4.426526048436537e+04, 4.513685172825091e+04, 6.787592902351365e+05
60, -5.374259000000000e-02, 1.093129000000000e-02, -2.207903207352412e-04, 2.689761261538978e-03, -4.554586433329086e-02, 2.749512330638989e-01, -3.871149593121845e+01, 1.341754070586689e+02, 8.756570942783472e+05, 4.374729868141229e+04, 3.394838234575096e+04, 8.346759123550333e+05
61, -4.044550000000000e-02, 1.073696000000000e-02, -2.016709757441950e-04, 2.930724306664570e-03, -4.951980397477129e-02, 3.071307169663579e-01, -4.421785398616421e+01, 1.558958935591065e+02, 1.012517863633708e+06, 4.295166490792848e+04, 2.151307364496595e+04, 9.705204083697433e+05
62, -2.702974000000000e-02, 1.050249000000000e-02, -1.792689254378498e-04, 3.149952815006056e-03, -5.391836993333909e-02, 3.380271408333696e-01, -5.036981589233611e+01, 1.780784049151893e+02, 1.127421714257355e+06, 4.170602868008017e+04, 8.117982046817880e+03, 1.085837076378672e+06
63, -1.353473000000000e-02, 1.023115000000000e-02, -1.542698118733964e-04, 3.342911917497810e-03, -5.898489532695073e-02, 3.673429072048707e-01, -5.737765548510137e+01, 2.009749663500943e+02, 1.219666806517230e+06, 4.056996618184938e+04, -5.941960921596386e+03, 1.179156726854939e+06
64, -9.637083000000000e-13, 9.926297000000001e-03, -1.274412832309778e-04, 3.505586297439031e-03, -6.493241846913989e-02, 3.951962625638316e-01, -6.537606091724767e+01, 2.251105586740628e+02, 1.287510010736471e+06, 3.995623641878500e+04, -2.039168093614174e+04, 1.248220213912556e+06
65, 1.353473000000000e-02, 9.591344000000000e-03, -9.963794305204934e-05, 3.634608364681093e-03, -7.185702719769221e-02, 4.219870163527792e-01, -7.434512164438566e+01, 2.513394313886907e+02, 1.328068388338824e+06, 4.032214545643206e+04, -3.487576545081650e+04, 1.289633925624182e+06
66, 2.702974000000000e-02, 9.229734000000000e-03, -7.180137012443983e-05, 3.727420907101050e-03, -7.973230154515087e-02, 4.480226098439464e-01, -8.411138625250533e+01, 2.803324906156761e+02, 1.337381284505924e+06, 3.962033056744788e+04, -4.859686810359052e+04, 1.301395449479217e+06
67, 4.044550000000000e-02, 8.844876000000000e-03, -4.491721873111923e-05, 3.782555197740047e-03, -8.848083718094868e-02, 4.731507298804734e-01, -9.442700717129210e+01, 3.120398569369108e+02, 1.313547416821879e+06, 3.229013497064990e+04, -5.989477030526362e+04, 1.286844884333960e+06
68, 5.374259000000000e-02, 8.440148000000000e-03, -1.986745458271902e-05, 3.800012586859315e-03, -9.804562106582260e-02, 4.969565728958041e-01, -1.050847336832246e+02, 3.458803446470413e+02, 1.261203112017563e+06, 1.403706977811318e+04, -6.746196767326815e+04, 1.254443145481137e+06
69, 6.688208000000000e-02, 8.018835000000000e-03, 2.723741201597734e-06, 3.781297726784232e-03, -1.084176416599043e-01, 5.193501008797086e-01, -1.159828928499319e+02, 3.813957380049740e+02, 1.198588176779082e+06, 6.354892745814694e+03, -7.125131900938801e+04, 1.200719453244203e+06
70, 7.982535000000000e-02, 7.584165000000000e-03, 2.252285266532830e-05, 3.728236504024231e-03, -1.195925772119190e-01, 5.403941385390503e-01, -1.270831265013264e+02, 4.182824799293963e+02, 1.135530331912650e+06, 8.080690312516086e+03, -7.271666434790623e+04, 1.136790898731959e+06
71, 9.253454000000000e-02, 7.139249000000000e-03, 3.939467496860806e-05, 3.642663488121324e-03, -1.315268524905419e-01, 5.601349931262907e-01, -1.383441410446682e+02, 4.562633942876208e+02, 1.073657836859678e+06, 1.062104268821586e+04, -7.340433388538120e+04, 1.073126279006793e+06
72, 1.049722000000000e-01, 6.687137000000000e-03, 5.326784825061151e-05, 3.526643973111439e-03, -1.441472725063434e-01, 5.785979110872550e-01, -1.497074098390732e+02, 4.950448381667049e+02, 1.011861326556548e+06, 1.123873599148929e+04, -7.368782044791075e+04, 1.011417395677266e+06
73, 1.171021000000000e-01, 6.230763000000000e-03, 6.409639253285075e-05, 3.382577900206319e-03, -1.573665010872966e-01, 5.958185614687252e-01, -1.611067170947437e+02, 5.343360692219933e+02, 9.495532471150008e+05, 1.078410182468832e+04, -7.336115479292889e+04, 9.501657456882520e+05
74, 1.288884000000000e-01, 5.773013000000000e-03, 7.187604788018661e-05, 3.213184755132883e-03, -1.710860825893306e-01, 6.118534817463139e-01, -1.724741740959453e+02, 5.738652885411379e+02, 8.871467231427232e+05, 1.032615906911900e+04, -7.232052100425996e+04, 8.886705422234180e+05
75, 1.402968000000000e-01, 5.316684000000000e-03, 7.666022480245303e-05, 3.021423495126279e-03, -1.851963181351710e-01, 6.267739847687075e-01, -1.837415967608414e+02, 6.133861889148160e+02, 8.253233080362508e+05, 9.991437075712372e+03, -7.064348806319915e+04, 8.274829722882239e+05
76, 1.512935000000000e-01, 4.864536000000000e-03, 7.855938402080050e-05, 2.810456575018719e-03, -1.995755217701413e-01, 6.406552540413055e-01, -1.948388923528193e+02, 6.526711894907489e+02, 7.646547054889443e+05, 9.565825715979292e+03, -6.846769853703977e+04, 7.674050555792729e+05
77, 1.618466000000000e-01, 4.419268000000000e-03, 7.773499470520161e-05, 2.583589539725869e-03, -2.140948675551200e-01, 6.535746768816026e-01, -2.056965179546637e+02, 6.915147097230355e+02, 7.056262465766802e+05, 8.952896376717868e+03, -6.591009583029168e+04, 7.090347803939327e+05
78, 1.719248000000000e-01, 3.983556000000000e-03, 7.439380138549878e-05, 2.344259405300718e-03, -2.286199866280261e-01, 6.656116243808889e-01, -2.162458447906078e+02, 7.297290995414515e+02, 6.487415725651069e+05, 8.199758477936408e+03, -6.308251925156856e+04, 6.528487057003187e+05
79, 1.814989000000000e-01, 3.560046000000000e-03, 6.878377533613702e-05, 2.095961497403896e-03, -2.430154846127734e-01, 6.768496711863907e-01, -2.264220671431921e+02, 7.671506083073548e+02, 5.945000101794249e+05, 7.361582414810417e+03, -6.010159112741773e+04, 5.993165594092095e+05
80, 1.905404000000000e-01, 3.151355000000000e-03, 6.118766893959019e-05, 1.842242598902293e-03, -2.571448113473398e-01, 6.873737891700618e-01, -2.361630641942478e+02, 8.036329373316620e+02, 5.433122517946651e+05, 6.448033811660063e+03, -5.708665867841498e+04, 5.488704172632799e+05
81, 1.990233000000000e-01, 2.760025000000000e-03, 5.191498672905251e-05, 1.586620022031659e-03, -2.708749864974433e-01, 6.972716357791215e-01, -2.454115949732499e+02, 8.390512679853418e+02, 4.954365684095604e+05, 5.457775864750432e+03, -5.413752115682913e+04, 5.017994638615056e+05
82, 2.069223000000000e-01, 2.388589000000000e-03, 4.129645684563050e-05, 1.332607286153271e-03, -2.840753622566494e-01, 7.066296797951703e-01, -2.541131933510650e+02, 8.732891088007492e+02, 4.509384372733238e+05, 4.397755855963624e+03, -5.130539099072964e+04, 4.581785162352409e+05
83, 2.142143000000000e-01, 2.039626000000000e-03, 2.968003327761713e-05, 1.083657623284869e-03, -2.966211043916784e-01, 7.155307897411984e-01, -2.622178790187127e+02, 9.062342493608704e+02, 4.096047398208790e+05, 3.265643803194951e+03, -4.859036524367535e+04, 4.177984625755864e+05
84, 2.208774000000000e-01, 1.715579000000000e-03, 1.742083818563125e-05, 8.431968678207955e-04, -3.083916911717708e-01, 7.240457564224689e-01, -2.696776852407845e+02, 9.377593917021065e+02, 3.709020167229949e+05, 2.073954119351796e+03, -4.592964884396941e+04, 3.800950806517734e+05
85, 2.268939000000000e-01, 1.418304000000000e-03, 4.860256858819335e-06, 6.145267464551539e-04, -3.192761612925867e-01, 7.322259638914339e-01, -2.764482834101889e+02, 9.677166815849638e+02, 3.340695864774710e+05, 8.168472279796188e+02, -4.314497235770876e+04, 3.442431448500890e+05
86, 2.322460000000000e-01, 1.149879000000000e-03, -7.643576822234193e-06, 4.009992762569696e-04, -3.291667534753604e-01, 7.400822713409969e-01, -2.824874048721183e+02, 9.958927921468206e+02, 2.982098870145166e+05, -5.599421208295580e+02, -3.973788676603148e+04, 3.091598443848808e+05
87, 2.369133000000000e-01, 9.138651000000000e-04, -1.965508026384612e-05, 2.061683512919428e-04, -3.379559715287561e-01, 7.475608727563037e-01, -2.877593741847954e+02, 1.021963578207952e+03, 2.617460658074171e+05, -2.197287141384892e+03, -3.501891215351126e+04, 2.730776270577969e+05
88, 2.408804000000000e-01, 7.125407000000000e-04, -3.076750731887952e-05, 3.353330222144997e-05, -3.455477908626299e-01, 7.545396656335548e-01, -2.922332063064766e+02, 1.045507321945542e+03, 2.222477089190458e+05, -3.861396927127243e+03, -2.872010699112523e+04, 2.332910326799609e+05
89, 2.441551000000000e-01, 5.415768000000000e-04, -4.086333126834960e-05, -1.143177693070878e-04, -3.518864941995077e-01, 7.608638005780559e-01, -2.958771328984467e+02, 1.066117804465849e+03, 1.794317144182763e+05, -5.232845041846931e+03, -2.105930800167878e+04, 1.894069094163137e+05
90, 2.467325000000000e-01, 4.007940000000000e-04, -4.962658094283887e-05, -2.343228942590188e-04, -3.569075700049713e-01, 7.662810225401335e-01, -2.986751674070479e+02, 1.083215998464792e+03, 1.369420811367231e+05, -7.252845930333942e+03, -1.089359984744554e+04, 1.458316120133730e+05
91, 2.485345000000000e-01, 3.132200000000000e-04, -5.555490446115108e-05, -3.201954334573326e-04, -3.604582150333229e-01, 7.702983026790218e-01, -3.006781962395903e+02, 1.095654007541907e+03, 8.882239655754567e+04, -1.068661942012061e+04, 5.169929936994631e+02, 9.951438784349518e+04
92, 2.495362000000000e-01, 2.855885000000000e-04, -5.796897001772571e-05, -3.685426436222140e-04, -3.624780562634933e-01, 7.725688320186030e-01, -3.019194725183856e+02, 1.102695026947747e+03, 3.207397099243246e+04, -5.849016995926739e+03, 5.831493072056537e+02, 3.794091815472069e+04
93, 2.501265000000000e-01, 1.963230000000000e-04, -6.297593312860515e-05, -3.970234808226394e-04, -3.635010307367847e-01, 7.740697595739565e-01, -3.021263114516852e+02, 1.106969565523384e+03, 1.016471794628528e+04, 2.366551324602427e+03, -8.672224053921282e+02, 7.988723393708468e+03
94, -1.990233000000000e-01, 5.894257000000000e-03, 0.000000000000000e+00, 0.000000000000000e+00, 0.000000000000000e+00, 0.000000000000000e+00, 0.000000000000000e+00, 0.000000000000000e+00, -2.782262537204087e+06, -9.632106633099953e+05, 1.096005129621849e+06, 2.848483578423305e+06
95, -1.905404000000000e-01, 6.216489000000000e-03, -2.958422191996125e-05, 3.635163112918447e-05, -1.754536182599301e-03, 1.791441721780113e-03, -2.920685345507357e-02, -9.371442425054431e-01, -2.291591577144579e+06, 8.792469630944633e+04, 3.475082328302434e+05, 2.478940415413756e+06
96, -1.814989000000000e-01, 6.504574000000000e-03, -6.173820478368636e-05, 1.229198835479648e-04, -3.861980589770130e-03, 7.774236940683502e-03, -3.524776175732780e-01, -7.248443619169871e-01, -1.978996365797369e+06, 1.090849668083449e+05, 2.848253528948014e+05, 2.164390347923186e+06
97, -1.719248000000000e-01, 6.757240000000000e-03, -8.956462350624337e-05, 2.504268617184408e-04, -6.040118583695805e-03, 1.758392411223848e-02, -1.156812991249703e+00, 1.077537368503076e+00, -1.518601416148255e+06, 5.050228013505536e+04, 2.581948106029016e+05, 1.651891234488222e+06
98, -1.618466000000000e-01, 6.973592000000000e-03, -1.130324967245674e-04, 4.149620229404863e-04, -8.329923388794123e-03, 3.115257872647058e-02, -2.466232690214927e+00, 4.792473807585779e+00, -1.125120938418669e+06, 5.762029252552190e+04, 2.280659227745866e+05, 1.267648642132147e+06
99, -1.512935000000000e-01, 7.152941000000000e-03, -1.325844399289934e-04, 6.115440779287593e-04, -1.076676087070529e-02, 4.833898346024695e-02, -4.251530254921549e+00, 1.069448634652782e+01, -8.088924451422910e+05, 5.380838293412481e+04, 2.047158363507468e+05, 9.549277529608596e+05
100, -1.402968000000000e-01, 7.295031000000000e-03, -1.481677508318815e-04, 8.349324323319820e-04, -1.335369890790566e-02, 6.894180600228184e-02, -6.482287660175353e+00, 1.897366044781550e+01, -5.376223112120968e+05, 5.132752774596940e+04, 1.840655929030735e+05, 6.945376035692899e+05
101, -1.288884000000000e-01, 7.399830000000000e-03, -1.598264467311466e-04, 1.079812588628792e-03, -1.609543125721476e-02, 9.269312074985867e-02, -9.122073725992587e+00, 2.971427780792519e+01, -3.045972263322474e+05, 4.887359748773354e+04, 1.654319785231974e+05, 4.841617305863554e+05
102, -1.171021000000000e-01, 7.467748000000000e-03, -1.676127095896030e-04, 1.340724389012425e-03, -1.899725718913246e-02, 1.192443888283826e-01, -1.213820284719496e+01, 4.287609250706761e+01, -1.021001064788068e+05, 4.670241880766820e+04, 1.480727616633008e+05, 3.314277636499676e+05
103, -1.049722000000000e-01, 7.499411000000000e-03, -1.716076565771305e-04, 1.612141269125357e-03, -2.207100334688461e-02, 1.481559146354887e-01, -1.551290209112357e+01, 5.826401904378332e+01, 7.522875071105131e+04, 4.472547270614967e+04, 1.314811246460914e+05, 2.647255078791019e+05
104, -9.253454000000000e-02, 7.495851000000000e-03, -1.719295513369226e-04, 1.888478685223285e-03, -2.533427740468409e-02, 1.788986106500992e-01, -1.924259765011650e+01, 7.553575521358736e+01, 2.314268164992063e+05, 4.294690236830503e+04, 1.152656616978793e+05, 2.977740235436793e+05
105, -7.982535000000000e-02, 7.458289000000000e-03, -1.687379332334349e-04, 2.164161346484493e-03, -2.880166610208090e-02, 2.109203588399524e-01, -2.332133488397002e+01, 9.434444197618919e+01, 3.693720439483288e+05, 4.137745021443252e+04, 9.911991521537326e+04, 3.832485928061247e+05
106, -6.688208000000000e-02, 7.388282000000000e-03, -1.622437062931073e-04, 2.433653299257460e-03, -3.250992522296965e-02, 2.437121544853253e-01, -2.777896342022393e+01, 1.145027359202140e+02, 4.910124669347591e+05, 4.006032519790184e+04, 8.278130581863086e+04, 4.803840260762314e+05
107, -5.374259000000000e-02, 7.287529000000000e-03, -1.527118817106223e-04, 2.691534590100429e-03, -3.653065234232500e-02, 2.766438951630141e-01, -3.270473854106262e+01, 1.357258176220805e+02, 5.975037603652220e+05, 3.894207321790530e+04, 6.603733922075434e+04, 5.739641792257465e+05
108, -4.044550000000000e-02, 7.157976000000000e-03, -1.404683143100047e-04, 2.932570640758888e-03, -4.095886455383024e-02, 3.089636373421865e-01, -3.818539197957423e+01, 1.575709662232311e+02, 6.892787947871890e+05, 3.765940467624876e+04, 4.881664412551487e+04, 6.588930782329272e+05
109, -2.702974000000000e-02, 7.001662000000000e-03, -1.258996863744496e-04, 3.151825250789780e-03, -4.592005424353490e-02, 3.400107227405463e-01, -4.431921432372989e+01, 1.798847165671825e+02, 7.662533845733211e+05, 3.608135537100946e+04, 3.122703027064082e+04, 7.328381143932919e+05
110, -1.353473000000000e-02, 6.820770000000000e-03, -1.094585924660705e-04, 3.344768679861285e-03, -5.157068344685498e-02, 3.694854001209951e-01, -5.124304474259604e+01, 2.029047724993364e+02, 8.279111136565297e+05, 3.466986457874762e+04, 1.334610836005777e+04, 7.936902126597716e+05
111, -9.637083000000000e-13, 6.617531000000000e-03, -9.166431321707674e-05, 3.507390114534121e-03, -5.805328579278482e-02, 3.974977892147529e-01, -5.904269216252310e+01, 2.271733729816500e+02, 8.730031509845438e+05, 3.387411727487545e+04, -4.858475116911854e+03, 8.391852920162318e+05
112, 1.353473000000000e-02, 6.394229000000000e-03, -7.310712821989795e-05, 3.636325486730669e-03, -6.544588563777870e-02, 4.244259080652423e-01, -6.770277216805728e+01, 2.535161534534972e+02, 8.995586905960063e+05, 3.405639160599414e+04, -2.345238330682657e+04, 8.667723384419219e+05
113, 2.702974000000000e-02, 6.153156000000000e-03, -5.444302870001974e-05, 3.729030434771652e-03, -7.376354893594594e-02, 4.505549572142780e-01, -7.713356125352709e+01, 2.825723643532820e+02, 9.052795952414845e+05, 3.339446698145858e+04, -4.191856758004987e+04, 8.759065829829426e+05
114, 4.044550000000000e-02, 5.896584000000000e-03, -3.634544612082054e-05, 3.784065675877042e-03, -8.297956216168556e-02, 4.757481073656622e-01, -8.719228693509227e+01, 3.143100689201984e+02, 8.894406547903067e+05, 2.648077689163011e+04, -5.800740494572897e+04, 8.707233699499799e+05
115, 5.374259000000000e-02, 5.626765000000000e-03, -1.939968995734840e-05, 3.801452411548591e-03, -9.303477077671252e-02, 4.996274970747210e-01, -9.771348063717781e+01, 3.481874934751504e+02, 8.551045765877109e+05, 1.069467171527943e+04, -6.756062268763549e+04, 8.551525234707741e+05
116, 6.688208000000000e-02, 5.345890000000000e-03, -4.056511119986811e-06, 3.782635443528777e-03, -1.038857557696074e-01, 5.220770484986947e-01, -1.085785845237277e+02, 3.837298299925278e+02, 8.136182631190305e+05, 3.557088603607841e+03, -7.007625992565650e+04, 8.220960012540985e+05
117, 7.982535000000000e-02, 5.056110000000000e-03, 9.388304549372522e-06, 3.729456477891701e-03, -1.155124730358046e-01, 5.431457106145636e-01, -1.197288715218683e+02, 4.206162302253204e+02, 7.711293020834238e+05, 5.098764595651344e+03, -6.976417803598833e+04, 7.786340260430146e+05
118, 9.253454000000000e-02, 4.759500000000000e-03, 2.079791542077820e-05, 3.643783640737566e-03, -1.278708666752369e-01, 5.628832957913559e-01, -1.311131824354232e+02, 4.585684396814903e+02, 7.291178244561546e+05, 7.476815494320268e+03, -6.926950934446021e+04, 7.348188930034008e+05
119, 1.049722000000000e-01, 4.458091000000000e-03, 3.010464532233735e-05, 3.527687100082024e-03, -1.408874078498779e-01, 5.813188694306972e-01, -1.426651962305099e+02, 4.972973974407856e+02, 6.872129884254759e+05, 8.092680512413444e+03, -6.883603175124151e+04, 6.929343328836899e+05
120, 1.171021000000000e-01, 4.153842000000000e-03, 3.726148901838005e-05, 3.383559197803437e-03, -1.544729524868375e-01, 5.984889153651536e-01, -1.543095714808499e+02, 5.365156887298103e+02, 6.449969037666656e+05, 7.735211294922745e+03, -6.794511216764843e+04, 6.515893014482723e+05
121, 1.288884000000000e-01, 3.848675000000000e-03, 4.224912417576521e-05, 3.214113108854926e-03, -1.685274410527458e-01, 6.144499683874867e-01, -1.659684757020203e+02, 5.759534735623999e+02, 6.026651850318348e+05, 7.367554078078809e+03, -6.638813589477757e+04, 6.099252476898197e+05
122, 1.402968000000000e-01, 3.544456000000000e-03, 4.509030734051869e-05, 3.022305086366789e-03, -1.829409966094946e-01, 6.292742778381335e-01, -1.775643318168316e+02, 6.153665912535943e+02, 5.606521583792206e+05, 7.113452492768636e+03, -6.426355655766372e+04, 5.682643026974404e+05
123, 1.512935000000000e-01, 3.243024000000000e-03, 4.585157978603899e-05, 2.811295882523875e-03, -1.975928876253268e-01, 6.430388674866481e-01, -1.890185127614290e+02, 6.545301421394696e+02, 5.193520736187118e+05, 6.778987138110631e+03, -6.174261738056140e+04, 5.272378705937761e+05
124, 1.618466000000000e-01, 2.946179000000000e-03, 4.463935661914257e-05, 2.584389114856149e-03, -2.123556580776989e-01, 6.558234747026255e-01, -2.002536614073529e+02, 6.932414433774657e+02, 4.791055235186613e+05, 6.275586995991551e+03, -5.891868553117831e+04, 4.872923094928950e+05
125, 1.719248000000000e-01, 2.655704000000000e-03, 4.159536997587734e-05, 2.345019875979978e-03, -2.270963628567712e-01, 6.677100975817587e-01, -2.111938699353619e+02, 7.313157703794776e+02, 4.402565884823238e+05, 5.645451518304426e+03, -5.589338423747602e+04, 4.487573085524404e+05
126, 1.814989000000000e-01, 2.373364000000000e-03, 3.689365522953984e-05, 2.096681974516773e-03, -2.416812007311471e-01, 6.787852668436924e-01, -2.217676681966051e+02, 7.685922605392344e+02, 4.031458373503987e+05, 4.938679762349742e+03, -5.276329128079726e+04, 4.119524244151044e+05
127, 1.905404000000000e-01, 2.100903000000000e-03, 3.073587278800673e-05, 1.842921139228463e-03, -2.559754271362483e-01, 6.891372766449142e-01, -2.319070272778932e+02, 8.049274628342341e+02, 3.680530723370050e+05, 4.167073395353062e+03, -4.966166668306178e+04, 3.771977528786751e+05
128, 1.990233000000000e-01, 1.840017000000000e-03, 2.334559968138677e-05, 1.587253984850197e-03, -2.698480920309714e-01, 6.988572808035398e-01, -2.415497610663469e+02, 8.401992689896875e+02, 3.351606748027710e+05, 3.330131470727316e+03, -4.667774368403107e+04, 3.447125708612434e+05
129, 2.069223000000000e-01, 1.592393000000000e-03, 1.496413550524636e-05, 1.333193657479635e-03, -2.831708565393714e-01, 7.080353561191242e-01, -2.506374696429271e+02, 8.742937333738793e+02, 3.045201366277622e+05, 2.438894326144879e+03, -4.388561274020274e+04, 3.145741009250772e+05
130, 2.142143000000000e-01, 1.359751000000000e-03, 5.847525757901480e-06, 1.084193362950369e-03, -2.958215900783017e-01, 7.167580191858738e-01, -2.591172651018017e+02, 9.071009914778044e+02, 2.760014663468645e+05, 1.495019890041319e+03, -4.128814999169105e+04, 2.866576956324359e+05
131, 2.208774000000000e-01, 1.143720000000000e-03, -3.740360430263187e-06, 8.436791937898753e-04, -3.076830210948547e-01, 7.250995485774299e-01, -2.669394620459845e+02, 9.384957804108371e+02, 2.492599135927117e+05, 5.100693715706475e+02, -3.885889602723208e+04, 2.606080202178415e+05
132, 2.268939000000000e-01, 9.455361000000000e-04, -1.354240507055495e-05, 6.149533603038316e-04, -3.186480507307123e-01, 7.331142894638898e-01, -2.740595700606933e+02, 9.683317566786736e+02, 2.238080462761259e+05, -5.260630265820473e+02, -3.641544651471052e+04, 2.358604069701023e+05
133, 2.322460000000000e-01, 7.665862000000001e-04, -2.328684823823012e-05, 4.013687950297456e-04, -3.286127414438038e-01, 7.408159791049291e-01, -2.804349108715714e+02, 9.963969465472441e+02, 1.990680161879793e+05, -1.653919477819605e+03, -3.350372642496322e+04, 2.116111863651357e+05
134, 2.369133000000000e-01, 6.092434000000000e-04, -3.264565303960680e-05, 2.064811246873527e-04, -3.374722123930236e-01, 7.481544494749777e-01, -2.860258399222846e+02, 1.022369032741132e+03, 1.740146387231221e+05, -2.975520076418027e+03, -2.950477947376093e+04, 1.865680689696591e+05
135, 2.408804000000000e-01, 4.750271000000000e-04, -4.130656203798063e-05, 3.379138470041185e-05, -3.451322449680514e-01, 7.550103247083344e-01, -2.907971273216280e+02, 1.045827515188992e+03, 1.470610617305926e+05, -4.311539298409378e+03, -2.424793166836780e+04, 1.589512916055128e+05
136, 2.441551000000000e-01, 3.610512000000000e-04, -4.915319604177616e-05, -1.141121032809671e-04, -3.515405110692758e-01, 7.612270443715454e-01, -2.947223422951589e+02, 1.066364373407519e+03, 1.180468741776583e+05, -5.525833093646857e+03, -1.775155132604413e+04, 1.285717087087373e+05
137, 2.467325000000000e-01, 2.671960000000000e-04, -5.593142180626033e-05, -2.341650156353382e-04, -3.566311037810168e-01, 7.665532917217659e-01, -2.977790531690226e+02, 1.083400658767301e+03, 8.946597219184964e+04, -7.209755418789505e+03, -8.542289939440769e+03, 9.817371938907265e+04
138, 2.485345000000000e-01, 2.088133000000000e-04, -6.057020834612236e-05, -3.200696996429680e-04, -3.602307901936614e-01, 7.705129758273204e-01, -2.999552279817751e+02, 1.095799689277411e+03, 5.646130973111725e+04, -9.871206583765817e+03, 3.776453246458550e+02, 6.633681620811431e+04
139, 2.495362000000000e-01, 1.903924000000000e-04, -6.257272288963611e-05, -3.684296316780292e-04, -3.622665541268286e-01, 7.727656395032394e-01, -3.012520799952425e+02, 1.102829234854702e+03, 1.735999807864281e+04, -2.053352344177805e+03, -4.374870261451565e+03, 2.129403986699946e+04
140, 2.502041000000000e-01, 1.235855000000000e-04, -6.658909033837561e-05, -4.006960435617063e-04, -3.634990822580582e-01, 7.743933864031511e-01, -3.017238809065566e+02, 1.107617891174334e+03, 1.665111380529680e+03, -1.393778225569646e+02, -2.290333627083146e+03, 4.923280794089203e+03
141, -1.990233000000000e-01, 2.947129000000000e-03, 0.000000000000000e+00, 0.000000000000000e+00, 0.000000000000000e+00, 0.000000000000000e+00, 0.000000000000000e+00, 0.000000000000000e+00, -1.312298049834356e+06, -4.517932552130765e+05, 1.017489938211872e+06, 2.209436941624676e+06
142, -1.905404000000000e-01, 3.108244000000000e-03, -1.395938870939524e-05, 3.369583918318635e-05, -5.452384052377721e-04, 1.696128135127635e-03, 2.047639821220882e-01, -8.676825204735779e-01, -1.115754452328691e+06, 1.529190626112116e+04, 4.816435656571961e+05, 1.485660783165250e+06
143, -1.814989000000000e-01, 3.252287000000000e-03, -2.974778255143339e-05, 1.202204683884723e-04, -1.282038006540634e-03, 7.745327303443140e-03, 2.730463345706515e-01, -5.838163424734555e-01, -9.722557925789501e+05, 8.312067350064445e+04, 4.678078908201308e+05, 1.410388732232703e+06
144, -1.719248000000000e-01, 3.378620000000000e-03, -4.396640316411863e-05, 2.486015969940829e-04, -2.176170398191414e-03, 1.767168047307068e-02, 2.674381128997982e-03, 1.278155198681758e+00, -7.515124652636545e+05, 4.817210342988136e+04, 3.875118327438581e+05, 1.113623406485596e+06
145, -1.618466000000000e-01, 3.486796000000000e-03, -5.612944868136806e-05, 4.137553711408987e-04, -3.278353086595047e-03, 3.136601772320986e-02, -6.834302244743060e-01, 5.082820228980466e+00, -5.501579365091523e+05, 4.775220303436484e+04, 3.338226982052275e+05, 8.962404310881214e+05
146, -1.512935000000000e-01, 3.576470000000000e-03, -6.654114528518366e-05, 6.108731162824072e-04, -4.636285587539416e-03, 4.869680280392211e-02, -1.794786587377752e+00, 1.110193793780777e+01, -3.894062322555991e+05, 4.765744036963490e+04, 2.898654124500641e+05, 7.260251257828760e+05
147, -1.402968000000000e-01, 3.647516000000000e-03, -7.518296129388538e-05, 8.347438015125736e-04, -6.274034596128323e-03, 6.945796926980954e-02, -3.335611439261036e+00, 1.951689277701131e+01, -2.527744696346689e+05, 4.522592628117232e+04, 2.532346066539764e+05, 5.876353461074092e+05
148, -1.288884000000000e-01, 3.699915000000000e-03, -8.201996485803714e-05, 1.080032403716230e-03, -8.214213962221731e-03, 9.337492138005596e-02, -5.308380648362651e+00, 3.040377383071562e+01, -1.347882516763316e+05, 4.328556746753147e+04, 2.217113721046885e+05, 4.778430863229643e+05
149, -1.171021000000000e-01, 3.733874000000000e-03, -8.703473878385466e-05, 1.341282052138032e-03, -1.048036608962297e-02, 1.200934663001999e-01, -7.717657298588382e+00, 4.371215741150142e+01, -3.239083488821055e+04, 4.128292477135915e+04, 1.940277437112048e+05, 3.949871949582922e+05
150, -1.049722000000000e-01, 3.749705000000000e-03, -9.021253258775953e-05, 1.612967284702689e-03, -1.309809516506787e-02, 1.491713151178805e-01, -1.057567186706993e+01, 5.924238504549949e+01, 5.732060932625072e+04, 3.935808691717840e+04, 1.691075937768085e+05, 3.386918441640199e+05
151, -9.253454000000000e-02, 3.747926000000000e-03, -9.155640711591298e-05, 1.889507397564239e-03, -1.609099887926281e-02, 1.800849273583552e-01, -1.389297744257447e+01, 7.666445234890664e+01, 1.363397053927456e+05, 3.752487399436021e+04, 1.461654099932756e+05, 3.085801017860690e+05
152, -7.982535000000000e-02, 3.729145000000000e-03, -9.109121044220088e-05, 2.165332041570492e-03, -1.947560041832508e-02, 2.122866455656969e-01, -1.766675486301401e+01, 9.564364372231086e+01, 2.061144294839867e+05, 3.582390230100114e+04, 1.245711057530205e+05, 3.017792325564832e+05
153, -6.688208000000000e-02, 3.694141000000000e-03, -8.887223848706324e-05, 2.434911302936680e-03, -2.328653769547284e-02, 2.452429718870030e-01, -2.192268347408352e+01, 1.159530377576864e+02, 2.676153284327186e+05, 3.430699292092674e+04, 1.037973359995059e+05, 3.122952565468457e+05
154, -5.374259000000000e-02, 3.643765000000000e-03, -8.498925457742751e-05, 2.692832641227040e-03, -2.758717509792002e-02, 2.783173812821140e-01, -2.673509669759535e+01, 1.372932614543023e+02, 3.214235330801962e+05, 3.293068004516727e+04, 8.341336526954906e+04, 3.332555840112146e+05
155, -4.044550000000000e-02, 3.578988000000000e-03, -7.957150789817212e-05, 2.933870781190200e-03, -3.244814395437975e-02, 3.107729870364853e-01, -3.216272366170143e+01, 1.592629415172497e+02, 3.677535759602993e+05, 3.142562952062499e+04, 6.317962039254457e+04, 3.592814290888308e+05
156, -2.702974000000000e-02, 3.500831000000000e-03, -7.278997418071125e-05, 3.153097928443746e-03, -3.794256343293367e-02, 3.419678901695364e-01, -3.825177875265014e+01, 1.817101742146767e+02, 4.065464684014182e+05, 2.970925392813823e+04, 4.306830682787449e+04, 3.865563379690735e+05
157, -1.353473000000000e-02, 3.410385000000000e-03, -6.486296309368231e-05, 3.345989983763236e-03, -4.415556897152448e-02, 3.716013093619528e-01, -4.507411067200874e+01, 2.048610931173173e+02, 4.375066448636162e+05, 2.815677762017901e+04, 2.301526564325280e+04, 4.119297556898962e+05
158, -9.637083000000000e-13, 3.308766000000000e-03, -5.605904516751401e-05, 3.508540833437177e-03, -5.117065194762174e-02, 3.997733672597074e-01, -5.267612580640174e+01, 2.292663484072328e+02, 4.599373129283382e+05, 2.719128180827042e+04, 2.776815563714437e+03, 4.327816658187708e+05
159, 1.353473000000000e-02, 3.197115000000000e-03, -4.669988017499933e-05, 3.637390740608923e-03, -5.904809799234506e-02, 4.268397015630960e-01, -6.105369183786150e+01, 2.557245740494454e+02, 4.728374321810849e+05, 2.709735610150553e+04, -1.797738703295567e+04, 4.471878365984029e+05
160, 2.702974000000000e-02, 3.076578000000000e-03, -3.715239697572901e-05, 3.730008072380124e-03, -6.782618387935119e-02, 4.530651492311017e-01, -7.017976582623479e+01, 2.848458654890738e+02, 4.752400354338217e+05, 2.627754485074708e+04, -3.885523001543237e+04, 4.556382705049763e+05
161, 4.044550000000000e-02, 2.948292000000000e-03, -2.778791934053860e-05, 3.784979440293630e-03, -7.750904831060246e-02, 4.783276252436843e-01, -7.999044660178754e+01, 3.166146565014038e+02, 4.669734247411044e+05, 2.015605618554848e+04, -5.703660172605711e+04, 4.611490611383037e+05
162, 5.374259000000000e-02, 2.813383000000000e-03, -1.892395161969705e-05, 3.802335733941807e-03, -8.804399564027754e-02, 5.022800497544522e-01, -9.036675547397797e+01, 3.505238883734067e+02, 4.493374735158862e+05, 7.290394485799545e+03, -6.724338099496900e+04, 4.620522797580052e+05
163, 6.688208000000000e-02, 2.672945000000000e-03, -1.083818205633702e-05, 3.783468751901628e-03, -9.936934163001754e-02, 5.247864409788146e-01, -1.011913904717929e+02, 3.860876209348477e+02, 4.281896290735180e+05, 1.191656013508524e+03, -6.882416198357659e+04, 4.486360775598893e+05
164, 7.982535000000000e-02, 2.528055000000000e-03, -3.758882164822392e-06, 3.730226368271278e-03, -1.114474248867315e-01, 5.458817858195388e-01, -1.123886952963276e+02, 4.229693934523225e+02, 4.063122711614182e+05, 2.443414046779424e+03, -6.709284098445238e+04, 4.255770799661849e+05
165, 9.253454000000000e-02, 2.379750000000000e-03, 2.185753762286580e-06, 3.644504637962514e-03, -1.242291547969493e-01, 5.656182795543314e-01, -1.238944628873180e+02, 4.608896189057133e+02, 3.844086615521361e+05, 4.527981731487584e+03, -6.553130315713474e+04, 4.018541248698180e+05
166, 1.049722000000000e-01, 2.229046000000000e-03, 6.926831883500648e-06, 3.528378554332073e-03, -1.376401692483386e-01, 5.840285127957805e-01, -1.356331261483967e+02, 4.995634317895110e+02, 3.624742153594111e+05, 5.103007142743074e+03, -6.438436301544770e+04, 3.798625610215632e+05
167, 1.171021000000000e-01, 2.076921000000000e-03, 1.041263079968619e-05, 3.384233300040520e-03, -1.515902319928095e-01, 6.011497803517041e-01, -1.475203839771225e+02, 5.387065891133823e+02, 3.403284839085205e+05, 4.843926549518208e+03, -6.293609721135836e+04, 3.583206630312519e+05
168, 1.288884000000000e-01, 1.924338000000000e-03, 1.260842727536215e-05, 3.214775810426346e-03, -1.659780862124115e-01, 6.170386792896756e-01, -1.594688581419003e+02, 5.780511957824183e+02, 3.180449851954848e+05, 4.568927888242873e+03, -6.089934627651096e+04, 3.363066458048648e+05
169, 1.402968000000000e-01, 1.772228000000000e-03, 1.350681766187086e-05, 3.022959312947477e-03, -1.806936079428563e-01, 6.317683872249482e-01, -1.713915997655661e+02, 6.173552002669120e+02, 2.958330005478407e+05, 4.388883077799235e+03, -5.838020615663716e+04, 3.139628441256340e+05
170, 1.512935000000000e-01, 1.621512000000000e-03, 1.313071268157795e-05, 2.811942599412608e-03, -1.956168944371822e-01, 6.454177343684786e-01, -1.832013673065501e+02, 6.563963059087642e+02, 2.738967275061911e+05, 4.139502502700498e+03, -5.556597521770585e+04, 2.917520708566825e+05
171, 1.618466000000000e-01, 1.473089000000000e-03, 1.153128660631720e-05, 2.585027277141929e-03, -2.106218485195983e-01, 6.580687972483057e-01, -1.948129291727765e+02, 6.949746585993934e+02, 2.524221777497182e+05, 3.744598846984485e+03, -5.253511657293795e+04, 2.699635015002104e+05
172, 1.719248000000000e-01, 1.327852000000000e-03, 8.785268379682608e-06, 2.345646539491588e-03, -2.255770098177472e-01, 6.698062059484715e-01, -2.061431058582912e+02, 7.329083950183070e+02, 2.315959749025016e+05, 3.239308754308528e+03, -4.937622026187547e+04, 2.487947175558883e+05
173, 1.814989000000000e-01, 1.186682000000000e-03, 4.992657120213268e-06, 2.097292769866926e-03, -2.403501883579434e-01, 6.807194659937061e-01, -2.171137477080200e+02, 7.700394933704325e+02, 2.116030047338431e+05, 2.667303619953289e+03, -4.617080099009405e+04, 2.284318249636424e+05
174, 1.905404000000000e-01, 1.050452000000000e-03, 2.741372774648043e-07, 1.843510796632675e-03, -2.548084487296416e-01, 6.909001909423989e-01, -2.276509185698133e+02, 8.062272942660360e+02, 1.925947342646542e+05, 2.040540857836522e+03, -4.305251621366399e+04, 2.091051822271129e+05
175, 1.990233000000000e-01, 9.200083000000000e-04, -5.232783201503076e-06, 1.587816768797396e-03, -2.688228772270803e-01, 7.004430394868622e-01, -2.376874615156358e+02, 8.413523516123424e+02, 1.746774912793810e+05, 1.360132523179320e+03, -4.010143827660588e+04, 1.909748890656456e+05
176, 2.069223000000000e-01, 7.961963000000000e-04, -1.137607684973867e-05, 1.333723738347011e-03, -2.822674555796294e-01, 7.094416846223508e-01, -2.471610525691878e+02, 8.753032083485916e+02, 1.578917510091742e+05, 6.381888893694722e+02, -3.739887229217465e+04, 1.741361116893128e+05
177, 2.142143000000000e-01, 6.798753000000000e-04, -1.799170003941885e-05, 1.084685202676083e-03, -2.950227547179241e-01, 7.179862886299757e-01, -2.560158694392866e+02, 9.079723033726629e+02, 1.421910162961423e+05, -1.198871825713177e+02, -3.494842031467857e+04, 1.585495555934910e+05
178, 2.208774000000000e-01, 5.718598000000000e-04, -2.490706349442875e-05, 8.441278483582387e-04, -3.069747394655398e-01, 7.261546147699418e-01, -2.642004818277110e+02, 9.392363749165407e+02, 1.274218216325768e+05, -9.053553151855176e+02, -3.274256008070300e+04, 1.440700014088154e+05
179, 2.268939000000000e-01, 4.727680000000000e-04, -3.194933384330301e-05, 6.153546858727644e-04, -3.180201499432778e-01, 7.340039685305193e-01, -2.716702108767325e+02, 9.689505704448226e+02, 1.133684051707823e+05, -1.730492456594510e+03, -3.059962862034784e+04, 1.303576055389566e+05
180, 2.322460000000000e-01, 3.832931000000000e-04, -3.893324775077949e-05, 4.017198229018672e-04, -3.280588444804708e-01, 7.415509837859160e-01, -2.783819269185761e+02, 9.969042796614380e+02, 9.977997215536084e+04, -2.629148520883787e+03, -2.809507391077795e+04, 1.168116462938946e+05
181, 2.369133000000000e-01, 3.046217000000000e-04, -4.563828880727403e-05, 2.067808288148348e-04, -3.369885326859092e-01, 7.487491577090166e-01, -2.842919923606566e+02, 1.022777044149939e+03, 8.618729978449058e+04, -3.671293562944255e+03, -2.466200131282821e+04, 1.025057268321893e+05
182, 2.408804000000000e-01, 2.375136000000000e-04, -5.184674045140668e-05, 3.404068712386145e-05, -3.447167785688938e-01, 7.554818764216122e-01, -2.893609079208830e+02, 1.046149618415709e+03, 7.184047215590472e+04, -4.728428057930885e+03, -2.020273054168754e+04, 8.657596528665708e+04
183, 2.441551000000000e-01, 1.805256000000000e-04, -5.744354412824265e-05, -1.139118868824156e-04, -3.511946105793635e-01, 7.615909132205321e-01, -2.935675330393540e+02, 1.066612231800003e+03, 5.667707287109921e+04, -5.801394631822941e+03, -1.461403908552069e+04, 6.897709369846054e+04
184, 2.467325000000000e-01, 1.335980000000000e-04, -6.223644925577568e-05, -2.340102926810934e-04, -3.563547048156899e-01, 7.668259567116751e-01, -2.968829670703014e+02, 1.083586116243355e+03, 4.208521679352809e+04, -7.171498930783826e+03, -6.240882184725073e+03, 5.081356596146498e+04
185, 2.485345000000000e-01, 1.044067000000000e-04, -6.558515410493829e-05, -3.199457283788282e-04, -3.600034613584433e-01, 7.707278673952134e-01, -2.992323927135879e+02, 1.095945814325087e+03, 2.470071501144906e+04, -9.241272562398299e+03, 8.831646810300554e+02, 3.398791608613986e+04
186, 2.495362000000000e-01, 9.519618000000000e-05, -6.717500861309355e-05, -3.683176847787723e-04, -3.620552637073768e-01, 7.729625731460814e-01, -3.005850592729379e+02, 1.102963752189199e+03, 2.901002344094496e+03, 1.992800108097441e+02, -7.354018982441392e+03, 1.495411931016343e+04
187, 2.502041000000000e-01, 4.696250000000000e-05, -7.029919563388675e-05, -4.006061584991234e-04, -3.633280881556309e-01, 7.745519976854709e-01, -3.011850620343297e+02, 1.107726273243557e+03, -5.737394822761134e+03, 2.538649337774771e+02, -2.700731608374263e+03, 8.066659677475332e+03
188, -1.990233000000000e-01, 0.000000000000000e+00, 0.000000000000000e+00, 0.000000000000000e+00, 0.000000000000000e+00, 0.000000000000000e+00, 0.000000000000000e+00, 0.000000000000000e+00, 5.321020365308663e+04, 2.283903643773498e+04, 9.951471147615961e+05, 1.990525942526583e+06
189, -1.905404000000000e-01, 0.000000000000000e+00, 5.743164201153297e-07, 3.292113201522610e-05, 6.149237594259653e-04, 1.747864197553487e-03, 4.689541111245024e-01, -7.676876329663366e-01, 4.674514834237275e+04, 1.598159224989980e+04, 5.211023087016219e+05, 1.042658554331233e+06
190, -1.814989000000000e-01, 0.000000000000000e+00, 8.754225211141126e-07, 1.194168716745895e-04, 1.229125111410144e-03, 7.872698992194074e-03, 9.270132953685470e-01, -4.031925121527915e-01, 4.405199067170368e+04, 2.561628948519754e+04, 5.352100059850169e+05, 1.070578758010902e+06
191, -1.719248000000000e-01, 0.000000000000000e+00, 7.028408687331489e-07, 2.481695116587601e-04, 1.630181164445740e-03, 1.789104769677276e-02, 1.167389001621704e+00, 1.531750807746254e+00, 4.141932585497179e+04, 3.103135381374411e+04, 4.397077084434879e+05, 8.794767679828858e+05
192, -1.618466000000000e-01, 0.000000000000000e+00, 2.486323367707299e-08, 4.136374642592331e-04, 1.716839213172226e-03, 3.169402520584540e-02, 1.090018485486025e+00, 5.432014690189719e+00, 4.004975895393237e+04, 3.365745424741406e+04, 3.752658143650618e+05, 7.505588499803016e+05
193, -1.512935000000000e-01, 0.000000000000000e+00, -1.135940666935364e-06, 6.110247210289090e-04, 1.438984101775170e-03, 4.915307566992764e-02, 6.438344717020690e-01, 1.157034383643358e+01, 3.986679990637717e+04, 3.465033789498381e+04, 3.240139249726798e+05, 6.480488452120888e+05
194, -1.402968000000000e-01, 0.000000000000000e+00, -2.723592999891713e-06, 8.351350373316651e-04, 7.522500197353467e-04, 7.005627221293076e-02, -2.151322762119999e-01, 2.011970670717257e+01, 4.027644577280369e+04, 3.462741044065589e+04, 2.804208571302968e+05, 5.608701632775139e+05
195, -1.288884000000000e-01, 0.000000000000000e+00, -4.655310481116221e-06, 1.080618666371309e-03, -3.860768282143833e-04, 9.412247882252846e-02, -1.528415640668259e+00, 3.114817798518055e+01, 4.099288053878503e+04, 3.399380615050201e+04, 2.431722679189246e+05, 4.863948957191324e+05
196, -1.171021000000000e-01, 0.000000000000000e+00, -6.829689043858414e-06, 1.342015986091448e-03, -2.016216487992696e-03, 1.209924073457927e-01, -3.336352654700124e+00, 4.459718437239325e+01, 4.189435447644447e+04, 3.297208642176338e+04, 2.106145073101638e+05, 4.213234975944869e+05
197, -1.049722000000000e-01, 0.000000000000000e+00, -9.134757393208898e-06, 1.613801586767436e-03, -4.176068618508586e-03, 1.502218773782610e-01, -5.677921323654034e+00, 6.026448888755245e+01, 4.289210950023073e+04, 3.170990203927592e+04, 1.816301762295801e+05, 3.634324220985975e+05
198, -9.253454000000000e-02, 0.000000000000000e+00, -1.145508382874254e-05, 1.890396786901492e-03, -6.895961060726673e-03, 1.812916557711748e-01, -8.578737180264479e+00, 7.783045487517461e+01, 4.391900593587311e+04, 3.031257718068899e+04, 1.553263245288052e+05, 3.109504836304017e+05
199, -7.982535000000000e-02, 0.000000000000000e+00, -1.367868035699952e-05, 2.166235259431289e-03, -1.019708763993055e-02, 2.136558889889901e-01, -1.204485856725652e+01, 9.696748841603100e+01, 4.491548288989758e+04, 2.887000725450104e+04, 1.309975153464218e+05, 2.624859108525830e+05
200, -6.688208000000000e-02, 0.000000000000000e+00, -1.570310619899213e-05, 2.435792523754696e-03, -1.411190307388668e-02, 2.467634548600325e-01, -1.609879483299412e+01, 1.174202556429908e+02, 4.583303272882897e+04, 2.746297984648039e+04, 1.080457784266295e+05, 2.168709749739821e+05
201, -5.374259000000000e-02, 0.000000000000000e+00, -1.744099948239409e-05, 2.693663125909317e-03, -1.868987545564163e-02, 2.799730215130691e-01, -2.079284392334625e+01, 1.388796952921431e+02, 4.663825639222117e+04, 2.608398834790251e+04, 8.598629678075995e+04, 1.731965671458687e+05
202, -4.044550000000000e-02, 0.000000000000000e+00, -1.882388768141514e-05, 2.934630577266915e-03, -2.397282695079821e-02, 3.125608387644934e-01, -2.615429708134582e+01, 1.609748153789332e+02, 4.728225908990075e+04, 2.456528021408250e+04, 6.453126276068926e+04, 1.310465437285580e+05
203, -2.702974000000000e-02, 0.000000000000000e+00, -1.980642372236001e-05, 3.153775322655591e-03, -2.998513958443222e-02, 3.439005483979030e-01, -3.218373424529605e+01, 1.835573005418357e+02, 4.770821868021094e+04, 2.287407091238444e+04, 4.359575449141169e+04, 9.065921979620171e+04
204, -1.353473000000000e-02, 0.000000000000000e+00, -2.037207579795415e-05, 3.346579405718780e-03, -3.674924632428378e-02, 3.736908065172380e-01, -3.889530165623143e+01, 2.068441925959878e+02, 4.786395132696720e+04, 2.130809729050003e+04, 2.305309594855094e+04, 5.320708895305711e+04
205, -9.637083000000000e-13, 0.000000000000000e+00, -2.053724302075266e-05, 3.509041896548290e-03, -4.429623962116158e-02, 4.020210460575072e-01, -4.630135934266438e+01, 2.313875788748494e+02, 4.764936759001647e+04, 2.022719657694115e+04, 2.561453991400005e+03, 2.789658848803173e+04
206, 1.353473000000000e-02, 0.000000000000000e+00, -2.035229876520081e-05, 3.637808185095888e-03, -5.266781544670368e-02, 4.292256767808172e-01, -5.441033130604524e+01, 2.579615285732633e+02, 4.705660417938976e+04, 1.983775603902497e+04, -1.833323739868903e+04, 4.566504207985579e+04
207, 2.702974000000000e-02, 0.000000000000000e+00, -1.989331044935508e-05, 3.730358356316308e-03, -6.191533629804080e-02, 4.555518280443955e-01, -6.324711300252470e+01, 2.871510620343564e+02, 4.625294268444728e+04, 1.884924729970542e+04, -3.927137402388493e+04, 8.318609133524173e+04
208, 4.044550000000000e-02, 0.000000000000000e+00, -1.923639468020843e-05, 3.785298955974872e-03, -7.206461754148352e-02, 4.808893078436962e-01, -7.281396696760332e+01, 3.189536437282820e+02, 4.529413411714796e+04, 1.377792279009615e+04, -5.721709448489160e+04, 1.186947984605199e+05
209, 5.374259000000000e-02, 0.000000000000000e+00, -1.844473000410934e-05, 3.802662632504537e-03, -8.307322009934437e-02, 5.049149483282871e-01, -8.304014518629887e+01, 3.528907139618311e+02, 4.363560815398273e+04, 3.915503828724890e+03, -6.681350417158802e+04, 1.394053946099526e+05
210, 6.688208000000000e-02, 0.000000000000000e+00, -1.762251929461455e-05, 3.783795577861774e-03, -9.486941449636960e-02, 5.274783590676753e-01, -9.381909067458228e+01, 3.884699310143673e+02, 4.243402657727445e+04, -8.893723856849283e+02, -6.746404925566855e+04, 1.417127681812364e+05
211, 7.982535000000000e-02, 0.000000000000000e+00, -1.691608267765814e-05, 3.730544406731964e-03, -1.073980584874915e-01, 5.486022149811589e-01, -1.050610557402667e+02, 4.253424220184137e+02, 4.121674491033950e+04, 6.279968301532790e+01, -6.464481772457162e+04, 1.356814543050964e+05
212, 9.253454000000000e-02, 0.000000000000000e+00, -1.643834471309929e-05, 3.644825476171037e-03, -1.206021502798603e-01, 5.683398942279896e-01, -1.166867926188492e+02, 4.632273013709077e+02, 3.957731932684438e+04, 1.760448161594741e+03, -6.217645950856525e+04, 1.299760139903133e+05
213, 1.049722000000000e-01, 0.000000000000000e+00, -1.626242380210794e-05, 3.528717604156311e-03, -1.344060446479894e-01, 5.867268778483123e-01, -1.286104298003373e+02, 5.018433056248011e+02, 3.766497381095060e+04, 2.263672413920644e+03, -6.034241848486238e+04, 1.257699567266062e+05
214, 1.171021000000000e-01, 0.000000000000000e+00, -1.644721765680129e-05, 3.384599534159521e-03, -1.487189353729083e-01, 6.038012116962195e-01, -1.407388495404323e+02, 5.409090970854409e+02, 3.557442203502874e+04, 2.096611867186017e+03, -5.834333842325440e+04, 1.213941692467793e+05
215, 1.288884000000000e-01, 0.000000000000000e+00, -1.704308889505733e-05, 3.215172235658971e-03, -1.634386250234933e-01, 6.196196687532716e-01, -1.529753716249220e+02, 5.801587283284542e+02, 3.332442372653117e+04, 1.909957238869752e+03, -5.585991824943866e+04, 1.160525336735062e+05
216, 1.402968000000000e-01, 0.000000000000000e+00, -1.808717634685504e-05, 3.023385626359689e-03, -1.784547195245045e-01, 6.342563662465097e-01, -1.652237188888640e+02, 6.193522372461971e+02, 3.091003693049643e+04, 1.795660849096153e+03, -5.299788988800261e+04, 1.099215730643108e+05
217, 1.512935000000000e-01, 0.000000000000000e+00, -1.960012470047394e-05, 2.812396249049047e-03, -1.936480742401905e-01, 6.477919113384614e-01, -1.773879702875618e+02, 6.582698617280258e+02, 2.833660163798351e+04, 1.624054213492547e+03, -4.994460720827185e+04, 1.033993005133977e+05
218, 1.618466000000000e-01, 0.000000000000000e+00, -2.158607056359974e-05, 2.585503602767775e-03, -2.088939600455302e-01, 6.603106948077091e-01, -1.893749977493168e+02, 6.967144980418801e+02, 2.562899779903993e+04, 1.333912516890327e+03, -4.676656195677457e+04, 9.663693102481194e+04
219, 1.719248000000000e-01, 0.000000000000000e+00, -2.403341939668605e-05, 2.346139015752861e-03, -2.240624382028689e-01, 6.718999937942769e-01, -2.010943375260505e+02, 7.345070861699556e+02, 2.281814642022512e+04, 9.523691764378927e+02, -4.353972950783704e+04, 8.978276224831460e+04
220, 1.814989000000000e-01, 0.000000000000000e+00, -2.691616826036187e-05, 2.097793541460708e-03, -2.390229506926970e-01, 6.826523013199073e-01, -2.124611683420770e+02, 7.714923909166773e+02, 1.993477341740100e+04, 5.158142919111269e+02, -4.033230715519444e+04, 8.296912663974016e+04
221, 1.905404000000000e-01, -4.336809000000000e-19, -3.019464559208260e-05, 1.844011267526370e-03, -2.536443705688862e-01, 6.926625563354962e-01, -2.233956311201021e+02, 8.075324938734824e+02, 1.700399818955192e+04, 3.533789825100575e+01, -3.726866682297047e+04, 7.644442124267730e+04
222, 1.990233000000000e-01, 0.000000000000000e+00, -3.381733717969566e-05, 1.588308104383257e-03, -2.677998286218852e-01, 7.020289190313695e-01, -2.338256016136866e+02, 8.425105537924305e+02, 1.405564697818118e+04, -4.863736803069041e+02, -3.441734235745179e+04, 7.035399195946222e+04
223, 2.069223000000000e-01, 0.000000000000000e+00, -3.772159649070587e-05, 1.334197296877385e-03, -2.813656233512453e-01, 7.108486623288579e-01, -2.436848060045536e+02, 8.763175552886590e+02, 1.112133507540045e+04, -1.037899015390953e+03, -3.185443181329584e+04, 6.485881804555430e+04
224, 2.142143000000000e-01, 0.000000000000000e+00, -4.183536788262417e-05, 1.085132949069168e-03, -2.942250230351440e-01, 7.192155873173665e-01, -2.529144772426719e+02, 9.088481942744166e+02, 8.238388670557139e+03, -1.610849807097164e+03, -2.957901381142887e+04, 5.997232470745574e+04
225, 2.208774000000000e-01, 0.000000000000000e+00, -4.607734957784157e-05, 8.445426768943326e-04, -3.062672158366997e-01, 7.272109390364969e-01, -2.614614224062017e+02, 9.399811754516106e+02, 5.446371231036288e+03, -2.200741789095557e+03, -2.758838218507043e+04, 5.570416199801157e+04
226, 2.268939000000000e-01, 0.000000000000000e+00, -5.035904928019472e-05, 6.157306061958294e-04, -3.173927601449198e-01, 7.348949861085758e-01, -2.692807490351088e+02, 9.695731197953966e+02, 2.801025215808490e+03, -2.821473385339857e+03, -2.570353665392128e+04, 5.171363143889447e+04
227, 2.322460000000000e-01, 0.000000000000000e+00, -5.458169389470220e-05, 4.020522795609564e-04, -3.275052901408382e-01, 7.422872715368012e-01, -2.763288583628984e+02, 9.974147859247910e+02, 3.827245143882337e+02, -3.504307593739912e+03, -2.351585009836669e+04, 4.719205274201398e+04
228, 2.369133000000000e-01, 0.000000000000000e+00, -5.863230416822915e-05, 2.070674198227210e-04, -3.365050857457379e-01, 7.493449870641271e-01, -2.825581002984406e+02, 1.023187606211277e+03, -1.718236285267097e+03, -4.292397670691214e+03, -2.049041965276651e+04, 4.106160611841833e+04
229, 2.408804000000000e-01, 0.000000000000000e+00, -6.238772280607129e-05, 3.428119509006479e-05, -3.443014772572448e-01, 7.559543148622714e-01, -2.879246937508527e+02, 1.046473626271076e+03, -3.417173713091016e+03, -5.105545214166543e+03, -1.658160239057470e+04, 3.320615529810842e+04
230, 2.441551000000000e-01, 0.000000000000000e+00, -6.573428706288859e-05, -1.137171226011829e-04, -3.508488268775680e-01, 7.619554048368888e-01, -2.924127603744126e+02, 1.066861376899415e+03, -4.693074211572101e+03, -6.058646689706376e+03, -1.164853904061110e+04, 2.333706569634669e+04
231, 2.467325000000000e-01, -5.421011000000000e-20, -6.854164289657126e-05, -2.338587204173598e-04, -3.560783864635351e-01, 7.670990164257150e-01, -2.959869328152263e+02, 1.083772367778484e+03, -5.259162229558970e+03, -7.138471380489026e+03, -3.971263429700106e+03, 8.161834095169004e+03
232, 2.485345000000000e-01, 0.000000000000000e+00, -7.060002927279836e-05, -3.198234674974394e-04, -3.597761846771572e-01, 7.709429788511484e-01, -2.985095974837410e+02, 1.096092381228992e+03, -6.680517065850852e+03, -8.692737749989690e+03, 2.074813977795566e+03, 4.611772354691805e+03
233, 2.495362000000000e-01, 0.000000000000000e+00, -7.177649934921530e-05, -3.682066204252577e-04, -3.618441250973878e-01, 7.731596195409605e-01, -2.999183186330561e+02, 1.103098514198321e+03, -1.013263868855634e+04, 1.607521555084134e+03, -7.951927325076616e+03, 1.976775038489603e+04
234, 2.502041000000000e-01, 2.710505000000000e-20, -7.257364701745587e-05, -4.005513528378511e-04, -3.632232401789570e-01, 7.746492641532869e-01, -3.008547258163645e+02, 1.107792793125421e+03, -1.441754025942791e+04, 1.665990509897121e+03, -6.254866001150713e+03, 2.037580321796492e+04
235, -1.990233000000000e-01, -2.947129000000000e-03, 0.000000000000000e+00, 0.000000000000000e+00, 0.000000000000000e+00, 0.000000000000000e+00, 0.000000000000000e+00, 0.000000000000000e+00, 1.416577433359527e+06, 4.958693302841230e+05, 1.024227763093660e+06, 2.245856953110790e+06
236, -1.905404000000000e-01, -3.108244000000000e-03, 1.510644780115211e-05, 3.385753155963919e-05, 1.784891131603061e-03, 1.938228222320705e-03, 7.415923775918006e-01, -6.345875052890518e-01, 1.209867520651512e+06, 1.785184638504070e+04, 4.936931420211099e+05, 1.547847874182619e+06
237, -1.814989000000000e-01, -3.252287000000000e-03, 3.148336915867070e-05, 1.205636680388710e-04, 3.748179647066576e-03, 8.157698731322965e-03, 1.586903357976901e+00, -1.856159927241041e-01, 1.062169175165862e+06, -3.246534507061420e+04, 4.874487540010820e+05, 1.465827371828678e+06
238, -1.719248000000000e-01, -3.378620000000000e-03, 4.535130558585753e-05, 2.491990665338025e-04, 5.433856351201125e-03, 1.824287637143852e-02, 2.327901033411905e+00, 1.834373638867505e+00, 8.361794929808095e+05, 1.235583772796851e+04, 4.087470952425656e+05, 1.160595608483460e+06
239, -1.618466000000000e-01, -3.486796000000000e-03, 5.616009328285432e-05, 4.146365687421429e-04, 6.703251669429880e-03, 3.213750045219840e-02, 2.853608853098101e+00, 5.839319865418588e+00, 6.322195629988422e+05, 1.784325731764257e+04, 3.532535841639652e+05, 9.362748655609791e+05
240, -1.512935000000000e-01, -3.576470000000000e-03, 6.425358885076239e-05, 6.120277552723438e-04, 7.503281728924609e-03, 4.970971239790734e-02, 3.070607875631359e+00, 1.210009926891187e+01, 4.710326118059062e+05, 1.989605849012362e+04, 3.060054475963197e+05, 7.603167271421429e+05
241, -1.402968000000000e-01, -3.647516000000000e-03, 6.972406656631760e-05, 8.361302723838027e-04, 7.765747990185342e-03, 7.073845656658594e-02, 2.891692693482617e+00, 2.078271056622971e+01, 3.349968758585965e+05, 2.239284040838391e+04, 2.652565330297623e+05, 6.157640751453722e+05
242, -1.288884000000000e-01, -3.699915000000000e-03, 7.270169903769319e-05, 1.081590303605572e-03, 7.427440261814955e-03, 9.493734336943371e-02, 2.235831272449304e+00, 3.194838414008698e+01, 2.182385644792570e+05, 2.322016618759084e+04, 2.294215400373120e+05, 4.985670945866912e+05
243, -1.171021000000000e-01, -3.733874000000000e-03, 7.337157640043517e-05, 1.342941766730936e-03, 6.431831036844617e-03, 1.219426559515029e-01, 1.027633312535697e+00, 4.553244298794738e+01, 1.174435048809203e+05, 2.335581138699826e+04, 1.975734426833416e+05, 4.061939870086668e+05
244, -1.049722000000000e-01, -3.749705000000000e-03, 7.194270520264686e-05, 1.614656549956575e-03, 4.729081382366044e-03, 1.513086750281263e-01, -7.977229496956579e-01, 6.133154652153375e+01, 2.954443402251596e+04, 2.293609837710342e+04, 1.688477811314562e+05, 3.377602150521387e+05
245, -9.253454000000000e-02, -3.747926000000000e-03, 6.864883816368098e-05, 1.891156672785251e-03, 2.281490485543304e-03, 1.825190502478746e-01, -3.281803114172601e+00, 7.903403501222745e+01, -4.758726312052482e+04, 2.215107059132992e+04, 1.425990228245878e+05, 2.936006819321360e+05
246, -7.982535000000000e-02, -3.729145000000000e-03, 6.373871138365747e-05, 2.166878654965621e-03, -9.374908820316691e-04, 2.150283722399262e-01, -6.440780530954219e+00, 9.831665022567451e+01, -1.155180770417563e+05, 2.113513970467278e+04, 1.182868444474393e+05, 2.732054390462923e+05
247, -6.688208000000000e-02, -3.694141000000000e-03, 5.747251379597791e-05, 2.436302830723255e-03, -4.958188428364999e-03, 2.482737010641936e-01, -1.029389840775464e+01, 1.189053192890163e+02, -1.753166170680278e+05, 1.999907803814737e+04, 9.544447379679933e+04, 2.731058605526437e+05
248, -5.374259000000000e-02, -3.643765000000000e-03, 5.011476983774262e-05, 2.694030384076509e-03, -9.814856962703206e-03, 2.816109087150059e-01, -1.487033411241788e+01, 1.404853118381259e+02, -2.276347804563753e+05, 1.877778790989729e+04, 7.369297044593139e+04, 2.871267480076397e+05
249, -4.044550000000000e-02, -3.578988000000000e-03, 4.193162465702964e-05, 2.934853079438334e-03, -1.551887743172335e-02, 3.143271406785387e-01, -2.016415956576885e+01, 1.627071196314359e+02, -2.727955668907190e+05, 1.739575020537292e+04, 5.281636560248677e+04, 3.088191613546458e+05
250, -2.702974000000000e-02, -3.500831000000000e-03, 3.318461167536810e-05, 3.153859432844305e-03, -2.204652505556130e-02, 3.458084067084194e-01, -2.613099883148843e+01, 1.854265191389357e+02, -3.108582059931172e+05, 1.586384515013206e+04, 3.276234026023519e+04, 3.332278236590722e+05
251, -1.353473000000000e-02, -3.410385000000000e-03, 2.412500368800683e-05, 3.346538123295248e-03, -2.936008961622633e-02, 3.757528531670810e-01, -3.273010481673984e+01, 2.088532952242549e+02, -3.416165619452657e+05, 1.441101502985512e+04, 1.342829388784937e+04, 3.570390901200168e+05
252, -9.637083000000000e-13, -3.308766000000000e-03, 1.498892344161906e-05, 3.508894080396621e-03, -3.744014756325731e-02, 4.042392043622047e-01, -3.994113406041072e+01, 2.335358438293255e+02, -3.645477335986027e+05, 1.331421189340123e+04, -5.505895159159380e+03, 3.780223662391112e+05
253, 1.353473000000000e-02, -3.197115000000000e-03, 5.998450097323835e-06, 3.637578600454202e-03, -4.630893321886959e-02, 4.315824443444296e-01, -4.778458323404557e+01, 2.602259931436610e+02, -3.786408958888667e+05, 1.270685931755805e+04, -2.447492375748398e+04, 3.943972021666056e+05
254, 2.702974000000000e-02, -3.076578000000000e-03, -2.630578093744172e-06, 3.730081896534334e-03, -5.602777148910676e-02, 4.580143533722414e-01, -5.633446363381216e+01, 2.894876219451252e+02, -3.826470097611988e+05, 1.164505798954934e+04, -4.313049347938127e+04, 4.036176316295664e+05
255, 4.044550000000000e-02, -2.948292000000000e-03, -1.068099534747114e-05, 3.785023789290862e-03, -6.664226929444989e-02, 4.834329223743330e-01, -6.565638403271066e+01, 3.213273302473062e+02, -3.763787658128979e+05, 7.738862335543716e+03, -5.866382896838043e+04, 4.016368155078791e+05
256, 5.374259000000000e-02, -2.813383000000000e-03, -1.796457894276092e-05, 3.802432339947651e-03, -7.812170166419530e-02, 5.075324504905645e-01, -7.572885405867456e+01, 3.552888259981801e+02, -3.622812281502919e+05, 6.989913741060882e+02, -6.640145774311967e+04, 3.865116481137734e+05
257, 6.688208000000000e-02, -2.672945000000000e-03, -2.441112604781748e-05, 3.783614414760436e-03, -9.038682316554297e-02, 5.301528291748128e-01, -8.645921234010137e+01, 3.908774308444350e+02, -3.435685372235812e+05, -2.781968148966389e+03, -6.597621173671722e+04, 3.654407307925046e+05
258, 7.982535000000000e-02, -2.528055000000000e-03, -3.008115752836379e-05, 3.730409233122198e-03, -1.033650886677551e-01, 5.513068777412085e-01, -9.774442197108033e+01, 4.277357345087713e+02, -3.240243123456345e+05, -2.115914363738761e+03, -6.237945739189407e+04, 3.452387630456625e+05
259, 9.253454000000000e-02, -2.379750000000000e-03, -3.507095941685349e-05, 3.644745269465482e-03, -1.169903313400584e-01, 5.710480882572773e-01, -1.094890252315325e+02, 4.655818357208725e+02, -3.053157261696476e+05, -8.443238084943987e+02, -5.920051327547214e+04, 3.266827787687693e+05
260, 1.049722000000000e-01, -2.229046000000000e-03, -3.945985562383357e-05, 3.528703563837485e-03, -1.311855311409695e-01, 5.894139727351715e-01, -1.215963630712868e+02, 5.041373423056405e+02, -2.871911750382421e+05, -4.317486039137002e+02, -5.671740691271130e+04, 3.083803262799904e+05
261, 1.171021000000000e-01, -2.076921000000000e-03, -4.331505102451716e-05, 3.384657294322188e-03, -1.458596516899436e-01, 6.064432402649684e-01, -1.339646620291959e+02, 5.431234959827752e+02, -2.692383487884587e+05, -5.192914635515081e+02, -5.417219838220871e+04, 2.897385719572599e+05
262, 1.288884000000000e-01, -1.924338000000000e-03, -4.670241081818062e-05, 3.215301852323079e-03, -1.609096686867437e-01, 6.221929720899424e-01, -1.464880780207556e+02, 5.822763024364220e+02, -2.514582852332006e+05, -6.293440353442347e+02, -5.127266413683823e+04, 2.709809995058579e+05
263, 1.402968000000000e-01, -1.772228000000000e-03, -4.968859716057274e-05, 3.023583574361969e-03, -1.762249032073208e-01, 6.367382563130977e-01, -1.590610117415538e+02, 6.213578883705621e+02, -2.340717272072916e+05, -6.885625400394201e+02, -4.811926801517713e+04, 2.524471377682218e+05
264, 1.512935000000000e-01, -1.621512000000000e-03, -5.233782202116621e-05, 2.812656449314399e-03, -1.916869628767879e-01, 6.501614413875565e-01, -1.715788405607763e+02, 6.601509559945088e+02, -2.172797057224573e+05, -7.911193945027226e+02, -4.488239877978633e+04, 2.343608902764864e+05
265, 1.618466000000000e-01, -1.473089000000000e-03, -5.470962151521321e-05, 2.585817764107003e-03, -2.071725118470654e-01, 6.625492071013999e-01, -1.839405360492358e+02, 6.984610732536270e+02, -2.012205676481000e+05, -9.828343874720176e+02, -4.161739437283631e+04, 2.168482877010819e+05
266, 1.719248000000000e-01, -1.327852000000000e-03, -5.685759262447940e-05, 2.346497019805403e-03, -2.225531600699425e-01, 6.739914898459358e-01, -1.960483530236260e+02, 7.361119221888955e+02, -1.860179800941029e+05, -1.244754232821500e+03, -3.838893598459992e+04, 2.000899463224051e+05
267, 1.814989000000000e-01, -1.186682000000000e-03, -5.882975745493709e-05, 2.098184039553461e-03, -2.376999922765963e-01, 6.845837897312168e-01, -2.078107954169596e+02, 7.729510039957361e+02, -1.717946810002897e+05, -1.547729278672270e+03, -3.525294890952986e+04, 1.842691135208894e+05
268, 1.905404000000000e-01, -1.050452000000000e-03, -6.066748238677012e-05, 1.844422332552933e-03, -2.524836912362368e-01, 6.944243761962468e-01, -2.191420724894414e+02, 8.088430887004959e+02, -1.586516581716443e+05, -1.882093320557013e+03, -3.231589311556355e+04, 1.695699391254988e+05
269, 1.990233000000000e-01, -9.200083000000000e-04, -6.240527213332942e-05, 1.588727800279096e-03, -2.667794315607485e-01, 7.036149140685972e-01, -2.299650821730000e+02, 8.436738866965761e+02, -1.466355586955498e+05, -2.243893795918289e+03, -2.963127730733721e+04, 1.560801181186916e+05
270, 2.069223000000000e-01, -7.961963000000000e-04, -6.406987939807962e-05, 1.334614168196196e-03, -2.804658223133175e-01, 7.122562752662214e-01, -2.402095886534740e+02, 8.773367727790182e+02, -1.357227356781527e+05, -2.623404983246495e+03, -2.725821723708340e+04, 1.438314063729063e+05
271, 2.142143000000000e-01, -6.798753000000000e-04, -6.568124706169907e-05, 1.085536463213444e-03, -2.934288179605415e-01, 7.204458957691084e-01, -2.498138677708594e+02, 9.097286548596267e+02, -1.257913611278354e+05, -3.010037494211636e+03, -2.518548344304381e+04, 1.327120482031077e+05
272, 2.208774000000000e-01, -5.718598000000000e-04, -6.724936549844282e-05, 8.449235667069187e-04, -3.055608171833237e-01, 7.282685000709908e-01, -2.587229526421369e+02, 9.407301689558836e+02, -1.166075499882752e+05, -3.404928319171549e+03, -2.340165353490283e+04, 1.224964616037081e+05
273, 2.268939000000000e-01, -4.727680000000000e-04, -6.877008368720256e-05, 6.160810335491323e-04, -3.167661818306686e-01, 7.357873213831390e-01, -2.668917259239857e+02, 9.701993907446130e+02, -1.078437343062944e+05, -3.824282007157930e+03, -2.173156767681903e+04, 1.127346024580785e+05
274, 2.322460000000000e-01, -3.832931000000000e-04, -7.023111572268247e-05, 4.023661021141144e-04, -3.269523053928001e-01, 7.430248249097620e-01, -2.742761090000074e+02, 9.979284530571450e+02, -9.908669991080712e+04, -4.298051005460351e+03, -1.976938924525270e+04, 1.027044447228178e+05
275, 2.369133000000000e-01, -3.046217000000000e-04, -7.162701632414826e-05, 2.073408594408849e-04, -3.360220247959305e-01, 7.499419252098463e-01, -2.808244324300808e+02, 1.023600709522864e+03, -8.968460306432571e+04, -4.846323082371884e+03, -1.699065215250903e+04, 9.139071502382844e+04
276, 2.408804000000000e-01, -2.375136000000000e-04, -7.292917816363496e-05, 3.451289134519925e-05, -3.438864266566242e-01, 7.564276332709170e-01, -2.864886311032801e+02, 1.046799532867308e+03, -7.871479994730643e+04, -5.436034945178037e+03, -1.338450056456852e+04, 7.801510636850339e+04
277, 2.441551000000000e-01, -1.805256000000000e-04, -7.402533165434884e-05, -1.135278154431300e-04, -3.505031956168894e-01, 7.623205171115526e-01, -2.912580830331276e+02, 1.067111806090139e+03, -6.608055779046676e+04, -6.297514401868106e+03, -8.851214747603364e+03, 6.234892370230488e+04
278, 2.467325000000000e-01, -1.335980000000000e-04, -7.484700046282284e-05, -2.337102959658759e-04, -3.558021566138956e-01, 7.673724701860269e-01, -2.950909609070834e+02, 1.083959411912167e+03, -5.261793577232430e+04, -7.106812521302748e+03, -1.741713638263507e+03, 4.564423956164159e+04
279, 2.485345000000000e-01, -1.044067000000000e-04, -7.561505348483109e-05, -3.197029054605957e-04, -3.595489381300592e-01, 7.711583170097054e-01, -2.977868012623004e+02, 1.096239395998108e+03, -3.801759543447015e+04, -8.139853347983086e+03, 4.051568133418768e+03, 3.095707172110402e+04
280, 2.495362000000000e-01, -9.519618000000000e-05, -7.637818494757289e-05, -3.680962767001229e-04, -3.616329773535503e-01, 7.733567680622064e-01, -2.992515251937687e+02, 1.103233476414053e+03, -2.218366292603884e+04, 2.466550146794719e+03, -6.060051620068781e+03, 2.746870777972068e+04
281, 2.502041000000000e-01, -4.696250000000000e-05, -7.484646804443411e-05, -4.004968440012323e-04, -3.631187764766546e-01, 7.747465746496438e-01, -3.005252494473376e+02, 1.107859393332645e+03, -1.923060014257941e+04, 4.214451012750564e+03, -1.078219368305364e+04, 3.185424973455766e+04
282, -1.990233000000000e-01, -5.894257000000000e-03, 0.000000000000000e+00, 0.000000000000000e+00, 0.000000000000000e+00, 0.000000000000000e+00, 0.000000000000000e+00, 0.000000000000000e+00, 2.879173539934776e+06, 1.001974313208613e+06, 1.109589928605329e+06, 2.906653776332989e+06
283, -1.905404000000000e-01, -6.216489000000000e-03, 3.072328404666052e-05, 3.666502055564279e-05, 3.027329592655195e-03, 2.280148139926070e-03, 1.004151452899771e+00, -4.674630346775980e-01, 2.388755070370864e+06, -5.080706165059854e+04, 3.737757949693885e+05, 2.551528321538504e+06
284, -1.814989000000000e-01, -6.504574000000000e-03, 6.342316315432098e-05, 1.236121955194042e-04, 6.350700548127801e-03, 8.595579595029058e-03, 2.228961969037593e+00, 6.789699527974280e-02, 2.074317439330813e+06, -6.085388631606231e+04, 3.253635571359847e+05, 2.232129558765208e+06
285, -1.719248000000000e-01, -6.757240000000000e-03, 9.088635168655277e-05, 2.516355155443800e-04, 9.286728287871807e-03, 1.872190742725543e-02, 3.471879146557348e+00, 2.185747947653185e+00, 1.608656919379920e+06, 5.502747274797992e+03, 3.005316403378436e+05, 1.712127438865074e+06
286, -1.618466000000000e-01, -6.973592000000000e-03, 1.130060966009824e-04, 4.167430039203863e-04, 1.172815745485910e-02, 3.269601615208672e-02, 4.606516987661039e+00, 6.306025349380731e+00, 1.213286330369618e+06, 2.759359279843913e+03, 2.668618676563636e+05, 1.322965068840425e+06
287, -1.512935000000000e-01, -7.152941000000000e-03, 1.302500578258399e-04, 6.138737190275031e-04, 1.360094198830135e-02, 5.036699386989137e-02, 5.491939727392968e+00, 1.269308331612855e+01, 8.961563312132959e+05, 8.527278573270920e+03, 2.367718928462670e+05, 1.006046247475058e+06
288, -1.402968000000000e-01, -7.295031000000000e-03, 1.426740876290062e-04, 8.377249475787508e-04, 1.480711921556249e-02, 7.150508652544450e-02, 5.997576226994815e+00, 2.150776628735664e+01, 6.248716365123466e+05, 1.138822540676863e+04, 2.078744576703733e+05, 7.410864027282803e+05
289, -1.288884000000000e-01, -7.399830000000000e-03, 1.504855526799631e-04, 1.082946541328904e-03, 1.526485274252164e-02, 9.582031838509696e-02, 6.002468528442447e+00, 3.280619262521366e+01, 3.924400849320965e+05, 1.319939240190474e+04, 1.806367143879652e+05, 5.237766634838714e+05
290, -1.171021000000000e-01, -7.467748000000000e-03, 1.539385059552698e-04, 1.344060017741245e-03, 1.490023906922668e-02, 1.229449518398740e-01, 5.395834439503742e+00, 4.651947522352051e+01, 1.909473349040782e+05, 1.402917035494708e+04, 1.549719693298400e+05, 3.568827287209469e+05
291, -1.049722000000000e-01, -7.499411000000000e-03, 1.533371773795119e-04, 1.615533829418151e-03, 1.365121252194582e-02, 1.524320877567753e-01, 4.086399405252092e+00, 6.244431306494460e+01, 1.488047749757830e+04, 1.419964163690336e+04, 1.307944360514946e+05, 2.615897581052883e+05
292, -9.253454000000000e-02, -7.495851000000000e-03, 1.490300451670896e-04, 1.891789013773387e-03, 1.147239639959372e-02, 1.837669963460639e-01, 2.016436729962106e+00, 8.027499839584753e+01, -1.399291640651794e+05, 1.388732910431039e+04, 1.079880354632853e+05, 2.651512337965614e+05
293, -7.982535000000000e-02, -7.458289000000000e-03, 1.414002497788470e-04, 2.167264131566717e-03, 8.332358110098800e-03, 2.164041533602065e-01, -8.388174314471968e-01, 9.969131517384771e+01, -2.764778742253145e+05, 1.324388108164486e+04, 8.642675656770288e+04, 3.373678000363957e+05
294, -6.688208000000000e-02, -7.388282000000000e-03, 1.308636235330298e-04, 2.436443762553807e-03, 4.202286723506737e-03, 2.497734430487743e-01, -4.495024196737059e+00, 1.204082738789360e+02, -3.968134200996571e+05, 1.238980520177612e+04, 6.596942075419702e+04, 4.299478311326534e+05
295, -5.374259000000000e-02, -7.287529000000000e-03, 1.178601036809179e-04, 2.693935361634843e-03, -9.387958596286869e-04, 2.832299391401998e-01, -8.960645961400644e+00, 1.421087433579757e+02, -5.021739013417619e+05, 1.138921709493071e+04, 4.650038197557165e+04, 5.219159115354854e+05
296, -4.044550000000000e-02, -7.157976000000000e-03, 1.028523130266080e-04, 2.934538529728392e-03, -7.072488636923516e-03, 3.160698615475674e-01, -1.419623341945721e+01, 1.644580890172243e+02, -5.931349686391902e+05, 1.023486295638213e+04, 2.799380706729235e+04, 6.059618524430003e+05
297, -2.702974000000000e-02, -7.001662000000000e-03, 8.631701216120379e-05, 3.153349765842179e-03, -1.412521044472213e-02, 3.476890990350793e-01, -2.010931934651448e+01, 1.873161351566464e+02, -6.697458994685342e+05, 8.967276957790338e+03, 1.052003722537543e+04, 6.790392187404232e+05
298, -1.353473000000000e-02, -6.820770000000000e-03, 6.873941439723423e-05, 3.345864874009861e-03, -2.199595937985385e-02, 3.777852782343649e-01, -2.660171685973085e+01, 2.108867323606700e+02, -7.315348176578698e+05, 7.755066861888175e+03, -5.912263810384480e+03, 7.393844418208238e+05
299, -9.637083000000000e-13, -6.617531000000000e-03, 5.060733664336157e-05, 3.508095412486118e-03, -3.061195032879144e-02, 4.064264926789382e-01, -3.361751114549783e+01, 2.357106167813862e+02, -7.773487853907417e+05, 6.791925084622839e+03, -2.147709801012023e+04, 7.853163163850313e+05
300, 1.353473000000000e-02, -6.394229000000000e-03, 3.241490037534771e-05, 3.636699383659483e-03, -3.997542791357686e-02, 4.339096818642174e-01, -4.118832766265741e+01, 2.625187631860628e+02, -8.051150418572153e+05, 6.148356404999799e+03, -3.643768709998085e+04, 8.145300003834985e+05
301, 2.702974000000000e-02, -6.153156000000000e-03, 1.467073601371874e-05, 3.729175561995707e-03, -5.016096837303730e-02, 4.604527471352080e-01, -4.944148450839782e+01, 2.918567141824461e+02, -8.124075845218031e+05, 5.184475872732775e+03, -5.045193186326778e+04, 8.237951000917191e+05
302, 4.044550000000000e-02, -5.896584000000000e-03, -2.111199172135176e-06, 3.784150821813951e-03, -6.123823920058299e-02, 4.859581578856984e-01, -5.851162424364440e+01, 3.237364625174194e+02, -7.988024374971517e+05, 2.418593562377737e+03, -6.139391490567889e+04, 8.105750993966432e+05
303, 5.374259000000000e-02, -5.626765000000000e-03, -1.748542759646806e-05, 3.801643139815215e-03, -7.318837033825820e-02, 5.101324199523609e-01, -6.842783203595172e+01, 3.577188416529576e+02, -7.687059541632531e+05, -2.215873956943728e+03, -6.599785192953949e+04, 7.777724017294059e+05
304, 6.688208000000000e-02, -5.345890000000000e-03, -3.120589763567367e-05, 3.782924151008604e-03, -8.592232263935939e-02, 5.328097533992546e-01, -7.910912289465398e+01, 3.933105961515421e+02, -7.297590473923089e+05, -4.562389819234530e+03, -6.432230816570447e+04, 7.365185873188906e+05
305, 7.982535000000000e-02, -5.056110000000000e-03, -4.325226150828229e-05, 3.729819941183690e-03, -9.934929971728712e-02, 5.539956753929729e-01, -9.043728545861407e+01, 4.301496994044570e+02, -6.892768258400518e+05, -4.175754122752933e+03, -6.027706115830922e+04, 6.956268934390920e+05
306, 9.253454000000000e-02, -4.759500000000000e-03, -5.370866021177317e-05, 3.644263283357832e-03, -1.133942024499390e-01, 5.737428141140888e-01, -1.023000443301956e+02, 4.679535506287941e+02, -6.502015490303360e+05, -3.308797818004488e+03, -5.660850993479410e+04, 6.567254564574227e+05
307, 1.049722000000000e-01, -4.458091000000000e-03, -6.266214869059876e-05, 3.528335796533356e-03, -1.279791244708073e-01, 5.920897831328613e-01, -1.145901870337309e+02, 5.064458300484719e+02, -6.120689226938937e+05, -2.988192038316189e+03, -5.351499020051908e+04, 6.184130926497099e+05
308, 1.171021000000000e-01, -4.153842000000000e-03, -7.018784853655334e-05, 3.384406041190141e-03, -1.430129667416177e-01, 6.090758725391034e-01, -1.271975122613632e+02, 5.453500262356690e+02, -5.740834456029213e+05, -3.015607913663411e+03, -5.042397103873191e+04, 5.799041150607092e+05
309, 1.288884000000000e-01, -3.848675000000000e-03, -7.636652542603254e-05, 3.215164221509991e-03, -1.583918295632561e-01, 6.247586089702146e-01, -1.400070384779474e+02, 5.844041102657465e+02, -5.362649898708916e+05, -3.068736247909263e+03, -4.713741884406831e+04, 5.414665178002313e+05
310, 1.402968000000000e-01, -3.544456000000000e-03, -8.129436630154651e-05, 3.023552803192870e-03, -1.740047332794827e-01, 6.392140868226401e-01, -1.529038015057640e+02, 6.233723045849376e+02, -4.990669021383041e+05, -3.086225370270524e+03, -4.374502750733645e+04, 5.036381056410914e+05
311, 1.512935000000000e-01, -3.243024000000000e-03, -8.507926471810643e-05, 2.812722914059689e-03, -1.897340973250137e-01, 6.525263541498565e-01, -1.657744970316280e+02, 6.620397007183270e+02, -4.629031226359325e+05, -3.129854948728331e+03, -4.038035159196087e+04, 4.668123272349724e+05
312, 1.618466000000000e-01, -2.946179000000000e-03, -8.783626815655176e-05, 2.585969529541771e-03, -2.054580228115130e-01, 6.647843588824998e-01, -1.785102122690128e+02, 7.002144612345284e+02, -4.280727054389220e+05, -3.232070542127047e+03, -3.708906658003104e+04, 4.312678523825115e+05
313, 1.719248000000000e-01, -2.655704000000000e-03, -8.968414637011048e-05, 2.346720362716210e-03, -2.210496868663613e-01, 6.760807073723747e-01, -1.910059394014486e+02, 7.377229471629670e+02, -3.948531456387988e+05, -3.381588877374204e+03, -3.392526347525952e+04, 3.973080338486455e+05
314, 1.814989000000000e-01, -2.373364000000000e-03, -9.074504307068371e-05, 2.098464107845355e-03, -2.363818168344609e-01, 6.865139324845120e-01, -2.031634930850292e+02, 7.744153501782991e+02, -3.635208696867620e+05, -3.555439278725346e+03, -3.093475362440709e+04, 3.652436816921740e+05
315, 1.905404000000000e-01, -2.100903000000000e-03, -9.114137580603642e-05, 1.844743859321608e-03, -2.513269081347645e-01, 6.961856382328087e-01, -2.148911489592759e+02, 8.101590743893454e+02, -3.343044142708984e+05, -3.745550648805112e+03, -2.819632375764081e+04, 3.353345985920816e+05
316, 1.990233000000000e-01, -1.840017000000000e-03, -9.099379435523726e-05, 1.589075743102880e-03, -2.657621700987243e-01, 7.052010042323458e-01, -2.261068027715134e+02, 8.448423329160920e+02, -3.073265231883886e+05, -3.947170450119751e+03, -2.574589645384571e+04, 3.077181119218360e+05
317, 2.069223000000000e-01, -1.592393000000000e-03, -9.041837840820425e-05, 1.334974253809364e-03, -2.795685137238180e-01, 7.136644959548373e-01, -2.367362581186122e+02, 8.783608346082758e+02, -2.825717960290904e+05, -4.152620496116726e+03, -2.361302163458017e+04, 2.823960631229150e+05
318, 2.142143000000000e-01, -1.359751000000000e-03, -8.952710424547302e-05, 1.085895659813267e-03, -2.926345613348165e-01, 7.216771831752249e-01, -2.467148193111553e+02, 9.106136554018008e+02, -2.598329389381804e+05, -4.349849164669391e+03, -2.177091012784429e+04, 2.591669332137080e+05
319, 2.208774000000000e-01, -1.143720000000000e-03, -8.842125595307899e-05, 8.452704456741457e-04, -3.048559095616850e-01, 7.293272676255027e-01, -2.559857406298916e+02, 9.414833265462634e+02, -2.386808330003041e+05, -4.546986789984960e+03, -2.018526430247008e+04, 2.375887992332123e+05
320, 2.268939000000000e-01, -9.455361000000000e-04, -8.718096792441243e-05, 6.164059092034495e-04, -3.161407148199276e-01, 7.366809469919477e-01, -2.645036823504792e+02, 9.708293579139786e+02, -2.185153483376630e+05, -4.764348321747773e+03, -1.868660652677407e+04, 2.169936567315959e+05
321, 2.322460000000000e-01, -7.665862000000001e-04, -8.588044101441948e-05, 4.026612447972196e-04, -3.264001169004080e-01, 7.437636223127013e-01, -2.722240824774518e+02, 9.984452616963590e+02, -1.985912718822650e+05, -5.029237139121928e+03, -1.685820668351103e+04, 1.964766088475715e+05
322, 2.369133000000000e-01, -6.092434000000000e-04, -8.462174289532455e-05, 2.076011150488836e-04, -3.355395027155126e-01, 7.505399578466108e-01, -2.790912568656304e+02, 1.024016341491864e+03, -1.776942084088939e+05, -5.340016115634173e+03, -1.416485044495316e+04, 1.746669389254118e+05
323, 2.408804000000000e-01, -4.750271000000000e-04, -8.347077301662518e-05, 3.473575553551397e-05, -3.434717130317058e-01, 7.569018246890229e-01, -2.850528676313251e+02, 1.047127332233056e+03, -1.540568961865937e+05, -5.715052021501655e+03, -1.061129401015487e+04, 1.498522638220066e+05
324, 2.441551000000000e-01, -3.610512000000000e-04, -8.231659323828990e-05, -1.133439712142265e-04, -3.501577504731519e-01, 7.626862478876202e-01, -2.901035552433964e+02, 1.067363516740885e+03, -1.274960155745281e+05, -6.508350979618819e+03, -6.225973986046869e+03, 1.216267486716223e+05
325, 2.467325000000000e-01, -2.671960000000000e-04, -8.115249153285604e-05, -2.335650241558399e-04, -3.555260300453349e-01, 7.676463185024032e-01, -2.941950770084694e+02, 1.084147249306232e+03, -1.000748205866356e+05, -7.115879719069957e+03, 4.752097526771977e+02, 9.296379932240141e+04
326, 2.485345000000000e-01, -2.088133000000000e-04, -8.063055280466532e-05, -3.195840536390122e-04, -3.593216759202642e-01, 7.713738914540205e-01, -2.970639086013690e+02, 1.096386870776436e+03, -6.938960915755402e+04, -7.267788051409616e+03, 6.676885417258243e+03, 6.354088331967531e+04
327, 2.495362000000000e-01, -1.903924000000000e-04, -8.098051764454290e-05, -3.679865792220297e-04, -3.614217836836262e-01, 7.735540224104795e-01, -2.985846242582062e+02, 1.103368618857111e+03, -3.510721314229384e+04, 1.860493475192843e+03, -1.603783832355973e+03, 3.710660079932241e+04
328, 2.502041000000000e-01, -1.235855000000000e-04, -7.855360675945247e-05, -4.004083479281185e-04, -3.629485428414267e-01, 7.749053836754403e-01, -2.999880863332315e+02, 1.107968155088866e+03, -2.043336811600898e+04, 9.815449081835837e+03, -1.400347853358849e+04, 4.122354407412501e+04
329, -1.990233000000000e-01, -8.841386000000000e-03, 0.000000000000000e+00, 0.000000000000000e+00, 0.000000000000000e+00, 0.000000000000000e+00, 0.000000000000000e+00, 0.000000000000000e+00, 4.597327775864737e+06, 1.594836042662033e+06, 1.266124224687410e+06, 3.927752387474516e+06
330, -1.905404000000000e-01, -9.324733000000000e-03, 4.910905350431574e-05, 4.185843107894540e-05, 4.444570220536922e-03, 2.810117093511528e-03, 1.231543296363524e+00, -2.667643957932797e-01, 3.579217293055198e+06, -2.663114761050601e+05, 3.268813490444573e+04, 3.846084446692939e+06
331, -1.814989000000000e-01, -9.756861000000000e-03, 9.796198380911830e-05, 1.283124650837182e-04, 9.102617495835089e-03, 9.167902535941234e-03, 2.824515265487952e+00, 3.579626838367211e-01, 3.065591419726800e+06, 1.617779153098290e+04, 9.767918095546735e+04, 3.055664962883676e+06
332, -1.719248000000000e-01, -1.013586000000000e-02, 1.380755762791415e-04, 2.553363332554852e-04, 1.323039181964186e-02, 1.931952614966911e-02, 4.587573011289270e+00, 2.589491771828142e+00, 2.327975523670687e+06, -7.407033431550008e+03, 1.118326330947849e+05, 2.346068592202077e+06
333, -1.618466000000000e-01, -1.046039000000000e-02, 1.713323729733922e-04, 4.199149380610583e-04, 1.684177361279651e-02, 3.336882048402650e-02, 6.348151374357192e+00, 6.835988323960777e+00, 1.777864758400546e+06, 1.072224866615790e+03, 1.198362453322753e+05, 1.792884438552377e+06
334, -1.512935000000000e-01, -1.072941000000000e-02, 1.974504507949092e-04, 6.165105748294655e-04, 1.977468195098363e-02, 5.112303979318735e-02, 7.914581908137445e+00, 1.335258255394891e+01, 1.305025128643946e+06, 2.984029080600267e+03, 1.175154120250214e+05, 1.323083713604611e+06
335, -1.402968000000000e-01, -1.094255000000000e-02, 2.166373277733660e-04, 8.398895058773104e-04, 2.191701172561280e-02, 7.235586005179795e-02, 9.115607234062521e+00, 2.229803854900402e+01, 9.042012177856234e+05, 4.883982980326426e+03, 1.093576710253340e+05, 9.255311392201703e+05
336, -1.288884000000000e-01, -1.109975000000000e-02, 2.291255438756549e-04, 1.084665970113860e-03, 2.316446207655400e-02, 9.677137774734612e-02, 9.789935087046674e+00, 3.372427227160975e+01, 5.590670999840325e+05, 6.020972967658447e+03, 9.744114919379656e+04, 5.863779743754383e+05
337, -1.171021000000000e-01, -1.120162000000000e-02, 2.352376222802990e-04, 1.345356910233389e-03, 2.342536709617444e-02, 1.239993630322555e-01, 9.790041912966226e+00, 4.756007244516189e+01, 2.591929563267286e+05, 6.569042491018830e+03, 8.322812585790911e+04, 3.025335114941020e+05
338, -1.049722000000000e-01, -1.124912000000000e-02, 2.353640009970261e-04, 1.616424328138968e-03, 2.262413454948582e-02, 1.535918600504221e-01, 8.996157393582216e+00, 6.360318213006867e+01, -3.455975183445662e+03, 6.642342563524428e+03, 6.773052448101316e+04, 1.358369309400476e+05
339, -9.253454000000000e-02, -1.124378000000000e-02, 2.299621099171994e-04, 1.892287980214724e-03, 2.070785987802156e-02, 1.850350333892077e-01, 7.334888471064215e+00, 8.155271387886947e+01, -2.348254999196819e+05, 6.356527050274392e+03, 5.165220731111510e+04, 2.623748696307982e+05
340, -7.982535000000000e-02, -1.118743000000000e-02, 2.195444613407800e-04, 2.167387855199873e-03, 1.764179209719427e-02, 2.177830627728685e-01, 4.777030287538451e+00, 1.010911155492951e+02, -4.392346270221210e+05, 5.812847265859537e+03, 3.550347233168442e+04, 4.506764255655464e+05
341, -6.688208000000000e-02, -1.108242000000000e-02, 2.046787908715243e-04, 2.436212545348916e-03, 1.339747649384122e-02, 2.512620205052696e-01, 1.311091327900968e+00, 1.219282559702202e+02, -6.196219916659549e+05, 5.103796312385169e+03, 1.965500889218895e+04, 6.259613308051593e+05
342, -5.374259000000000e-02, -1.093129000000000e-02, 1.859769173930546e-04, 2.693375624769176e-03, 7.962004768420908e-03, 2.848278569219888e-01, -3.056529512449094e+00, 1.437471033377146e+02, -7.777456647483215e+05, 4.291004848749645e+03, 4.406019626964058e+03, 7.820863153324520e+05
343, -4.044550000000000e-02, -1.073696000000000e-02, 1.640954687976268e-04, 2.933684375932599e-03, 1.380477155291035e-03, 3.177850038396927e-01, -8.254192544332930e+00, 1.662236746627543e+02, -9.143813868507287e+05, 3.396799744590633e+03, -9.963537744484151e+03, 9.179944924277791e+05
344, -2.702974000000000e-02, -1.050249000000000e-02, 1.397248474013625e-04, 3.152243351337197e-03, -6.219638569777378e-03, 3.495381527002610e-01, -1.413454267331336e+01, 1.892222750112296e+02, -1.029538650267305e+06, 2.468441060994584e+03, -2.318034948558629e+04, 1.033047893836967e+06
345, -1.353473000000000e-02, -1.023115000000000e-02, 1.135826248831980e-04, 3.344555964521599e-03, -1.466504044957370e-02, 3.797847309210657e-01, -2.053385213176622e+01, 2.129418935748002e+02, -1.122482419414503e+06, 1.623288634957447e+03, -3.504361908753710e+04, 1.126288534889878e+06
346, -9.637083000000000e-13, -9.926297000000001e-03, 8.640642871834502e-05, 3.506641153808228e-03, -2.382169478523977e-02, 4.085817866306175e-01, -2.735320124228485e+01, 2.379120365287935e+02, -1.191443543090425e+06, 9.942648807075275e+02, -4.545716593881370e+04, 1.195898549886132e+06
347, 1.353473000000000e-02, -9.591344000000000e-03, 5.896008216827266e-05, 3.635164508669103e-03, -3.367160646969231e-02, 4.362080923076257e-01, -3.463392296832787e+01, 2.648424015023513e+02, -1.233228379640307e+06, 6.051629961383842e+02, -5.433892017705203e+04, 1.238610545699831e+06
348, 2.702974000000000e-02, -9.229734000000000e-03, 3.204579089161988e-05, 3.727632490470048e-03, -4.431241050943546e-02, 4.628677372403480e-01, -4.256791671715971e+01, 2.942610527200409e+02, -1.243988445152328e+06, -2.405373831443285e+00, -6.130178047530766e+04, 1.250013160059349e+06
349, 4.044550000000000e-02, -8.844876000000000e-03, 6.483310329062175e-06, 3.782674216989640e-03, -5.584856658968729e-02, 4.884646823214414e-01, -5.137335988425161e+01, 3.261823095272292e+02, -1.222750263750699e+06, -1.776822188382626e+03, -6.533422919583101e+04, 1.227945597744045e+06
350, 5.374259000000000e-02, -8.440148000000000e-03, -1.700972142556471e-05, 3.800292320066113e-03, -6.827203369788740e-02, 5.127143372607548e-01, -6.113178936500118e+01, 3.601811587337251e+02, -1.175946245834128e+06, -4.685812652147171e+03, -6.546023939536160e+04, 1.178554697120348e+06
351, 6.688208000000000e-02, -8.018835000000000e-03, -3.800913331583070e-05, 3.781724038501253e-03, -8.147670165801224e-02, 5.354488772703170e-01, -7.176615033317083e+01, 3.957696772206766e+02, -1.116076437574864e+06, -6.316777718884132e+03, -6.243443350455028e+04, 1.116762614252374e+06
352, 7.982535000000000e-02, -7.584165000000000e-03, -5.642763298702295e-05, 3.728776113184771e-03, -9.535152871175118e-02, 5.566685289988529e-01, -8.313817859600184e+01, 4.325846267639405e+02, -1.054398111430771e+06, -6.208235647018661e+03, -5.833980299781925e+04, 1.054663996802231e+06
353, 9.253454000000000e-02, -7.139249000000000e-03, -7.234793561247971e-05, 3.643378950027524e-03, -1.098142728265551e-01, 5.764240331820880e-01, -9.511875008179641e+01, 4.703427579153337e+02, -9.950083701463018e+05, -5.656625266566472e+03, -5.441708474321215e+04, 9.953199242175234e+05
354, 1.049722000000000e-01, -6.687137000000000e-03, -8.586599019031819e-05, 3.527613707806575e-03, -1.247873083539233e-01, 5.947542764564346e-01, -1.075911467536955e+02, 5.087690269296709e+02, -9.369450033120853e+05, -5.409148533034928e+03, -5.073910108740625e+04, 9.370468901050618e+05
355, 1.171021000000000e-01, -6.230763000000000e-03, -9.706259925498355e-05, 3.383845298115206e-03, -1.401794660630997e-01, 6.116990900475598e-01, -1.204370855782742e+02, 5.475888854522673e+02, -8.789370786492670e+05, -5.404502881112294e+03, -4.709593803258664e+04, 8.785961930516339e+05
356, 1.288884000000000e-01, -5.773013000000000e-03, -1.060324812872183e-04, 3.214758996718763e-03, -1.558857184729251e-01, 6.273165872055140e-01, -1.335323013159824e+02, 5.865423081585690e+02, -8.210585606029062e+05, -5.428807487571670e+03, -4.345073888801300e+04, 8.202461587881036e+05
357, 1.402968000000000e-01, -5.316684000000000e-03, -1.129014128710446e-04, 3.023293057292176e-03, -1.717947845143211e-01, 6.416838753787237e-01, -1.467524083990140e+02, 6.253956019119885e+02, -7.640309242762970e+05, -5.420412671811308e+03, -3.987404774260709e+04, 7.627907098610589e+05
358, 1.512935000000000e-01, -4.864536000000000e-03, -1.178213475189162e-04, 2.812595453332828e-03, -1.877900130859110e-01, 6.548866663214143e-01, -1.599754541711344e+02, 6.639361739606680e+02, -7.084849822857637e+05, -5.416327873750961e+03, -3.643649459101445e+04, 7.068352038269192e+05
359, 1.618466000000000e-01, -4.419268000000000e-03, -1.209628515119371e-04, 2.585958763183117e-03, -2.037510130796131e-01, 6.670161556295358e-01, -1.730847007229382e+02, 7.019747012103728e+02, -6.548741242062484e+05, -5.440537877453822e+03, -3.318020940445158e+04, 6.528152022099154e+05
360, 1.719248000000000e-01, -3.983556000000000e-03, -1.225099840473665e-04, 2.346808951801917e-03, -2.195525274772983e-01, 6.781676444598110e-01, -1.859678785314505e+02, 7.393401712427545e+02, -6.036283728619011e+05, -5.487955703829415e+03, -3.014641253559483e+04, 6.011715091328740e+05
361, 1.814989000000000e-01, -3.560046000000000e-03, -1.226589626266403e-04, 2.098633683255530e-03, -2.350689251581422e-01, 6.884427154245296e-01, -1.985201205387017e+02, 7.758854141101143e+02, -5.551799723451944e+05, -5.539812470726705e+03, -2.737664007599713e+04, 5.523605951135847e+05
362, 1.905404000000000e-01, -3.151355000000000e-03, -1.216134223245834e-04, 1.844975803328254e-03, -2.501745122202009e-01, 6.979463198134308e-01, -2.106437497707690e+02, 8.114804192420281e+02, -5.098867621877721e+05, -5.589125805633477e+03, -2.490835448726969e+04, 5.067522181043372e+05
363, 1.990233000000000e-01, -2.760025000000000e-03, -1.195800683457662e-04, 1.589351897006989e-03, -2.647485268938135e-01, 7.067871518070921e-01, -2.222516649972068e+02, 8.460158447978110e+02, -4.679479512990220e+05, -5.631231304664085e+03, -2.276089170432762e+04, 4.645524538209286e+05
364, 2.069223000000000e-01, -2.388589000000000e-03, -1.167645003488575e-04, 1.335277521254512e-03, -2.786741579370569e-01, 7.150732809344285e-01, -2.332656749622218e+02, 8.793896880115030e+02, -4.293570382309930e+05, -5.660012074242049e+03, -2.091827384187401e+04, 4.257575210095167e+05
365, 2.142143000000000e-01, -2.039626000000000e-03, -1.133706553084576e-04, 1.086210506678250e-03, -2.918426746028233e-01, 7.229094048097808e-01, -2.436181141616314e+02, 9.115031439417006e+02, -3.938207474321089e+05, -5.662803559101949e+03, -1.933607670064219e+04, 3.900796391000341e+05
366, 2.208774000000000e-01, -1.715579000000000e-03, -1.095910931830535e-04, 8.455832812351839e-04, -3.041528597375291e-01, 7.303871989114707e-01, -2.532504618533432e+02, 9.422406009664547e+02, -3.607142004393929e+05, -5.656076227161935e+03, -1.793963244645091e+04, 3.568663520400362e+05
367, 2.268939000000000e-01, -1.418304000000000e-03, -1.055902172584728e-04, 6.167052032489606e-04, -3.155166583469609e-01, 7.375758283126777e-01, -2.621171598592944e+02, 9.714629840433802e+02, -3.291630046144576e+05, -5.667222286860013e+03, -1.656992916394349e+04, 3.251888242140816e+05
368, 2.322460000000000e-01, -1.149879000000000e-03, -1.015285852648251e-04, 4.029376789400287e-04, -3.258489511172606e-01, 7.445036374263294e-01, -2.701731832828183e+02, 9.989651849619960e+02, -2.980937585714629e+05, -5.716910563238520e+03, -1.478416073395876e+04, 2.938681794370640e+05
369, 2.369133000000000e-01, -9.138651000000000e-04, -9.761579892016782e-05, 2.078481592289879e-04, -3.350576724821472e-01, 7.511390687548882e-01, -2.773588421481130e+02, 1.024434486475269e+03, -2.657296565292145e+05, -5.780608819288922e+03, -1.201633799484632e+04, 2.610576122631223e+05
370, 2.408804000000000e-01, -7.125407000000000e-04, -9.401218993339960e-05, 3.494976598364910e-05, -3.430574215036195e-01, 7.573768822752776e-01, -2.836175477403785e+02, 1.047457018163735e+03, -2.294464815969209e+05, -5.937166847633773e+03, -8.263274589319553e+03, 2.241194784204396e+05
371, 2.441551000000000e-01, -5.415768000000000e-04, -9.060797329545855e-05, -1.131656017055525e-04, -3.498125281369537e-01, 7.630525958288947e-01, -2.889492376026449e+02, 1.067616508043397e+03, -1.889581185786840e+05, -6.685748464556256e+03, -3.776695607742935e+03, 1.824288097474622e+05
372, 2.467325000000000e-01, -4.007940000000000e-04, -8.745813897470569e-05, -2.334229004793772e-04, -3.552500105466010e-01, 7.679205602294683e-01, -2.932992828885779e+02, 1.084335876714449e+03, -1.476602065038380e+05, -7.168718534807587e+03, 2.700679290888191e+03, 1.405952803840910e+05
373, 2.485345000000000e-01, -3.132200000000000e-04, -8.564663902304684e-05, -3.194670039233918e-04, -3.590943992709157e-01, 7.715897242063319e-01, -2.963409233972432e+02, 1.096534844132799e+03, -1.013312245024363e+05, -6.072435337549302e+03, 9.812001887346418e+03, 9.725913035447907e+04
374, 2.495362000000000e-01, -2.855885000000000e-04, -8.558491917634631e-05, -3.678773087685456e-04, -3.612103058928147e-01, 7.737513625151236e-01, -2.979171249434540e+02, 1.103503864557212e+03, -4.740663637546922e+04, 1.288273502285121e+03, 5.605668760317581e+03, 4.996887368156521e+04
375, 2.501265000000000e-01, -1.963230000000000e-04, -8.197790396648454e-05, -3.965671653105788e-04, -3.626271014195275e-01, 7.748831792143687e-01, -2.993701491332815e+02, 1.107526283581869e+03, -1.782924565644928e+04, 1.691130027286074e+04, -1.373556085381655e+04, 4.428959312685193e+04
376, -1.990233000000000e-01, -1.178851000000000e-02, 0.000000000000000e+00, 0.000000000000000e+00, 0.000000000000000e+00, 0.000000000000000e+00, 0.000000000000000e+00, 0.000000000000000e+00, 6.950986877430296e+06, 2.408404474432277e+06, 1.523424663232630e+06, 5.469766512951817e+06
377, -1.905404000000000e-01, -1.243298000000000e-02, 7.432234296008891e-05, 5.026434460105026e-05, 6.294078976426182e-03, 3.587417497769268e-03, 1.372242925428940e+00, -3.127266511728188e-02, 4.986528717541873e+06, -1.380582003575462e+05, -1.784606392014227e+05, 5.137001448129305e+06
378, -1.814989000000000e-01, -1.300915000000000e-02, 1.350323560486040e-04, 1.338621315066639e-04, 1.196841195486203e-02, 9.816683696075270e-03, 3.341417508419936e+00, 6.872116692337404e-01, 3.941720248969569e+06, 2.289650768614332e+05, -5.530912778208041e+04, 3.714402693096129e+06
379, -1.719248000000000e-01, -1.351448000000000e-02, 1.879830137831668e-04, 2.603142492790162e-04, 1.733120068914500e-02, 2.004345238439912e-02, 5.667575015725462e+00, 3.055233118916227e+00, 3.078138632058765e+06, 1.207659435985885e+05, -1.329505336500637e+04, 2.957492223527576e+06
380, -1.618466000000000e-01, -1.394718000000000e-02, 2.318032036920728e-04, 4.239982906170172e-04, 2.208690224157756e-02, 3.414805594692367e-02, 8.078268370224812e+00, 7.434450274590942e+00, 2.344446350687936e+06, 1.062995711447143e+05, 1.993125462968691e+04, 2.238501736971439e+06
381, -1.512935000000000e-01, -1.430588000000000e-02, 2.664485360230346e-04, 6.198680930603792e-04, 2.606757661639153e-02, 5.197598793394823e-02, 1.034610712379122e+01, 1.408368346450233e+01, 1.717220566006843e+06, 7.548387691254202e+04, 3.634807044734307e+04, 1.643345394376757e+06
382, -1.402968000000000e-01, -1.459006000000000e-02, 2.921067105327599e-04, 8.425645404996930e-04, 2.913508049816155e-02, 7.328914143890521e-02, 1.225933375097620e+01, 2.315786445117947e+01, 1.183672576922558e+06, 5.270269163193085e+04, 4.168450612866842e+04, 1.134038479787639e+06
383, -1.288884000000000e-01, -1.479966000000000e-02, 3.090420470578374e-04, 1.086708923429522e-03, 3.116423423939846e-02, 9.778987029861598e-02, 1.361725802213191e+01, 3.470621980399038e+01, 7.226764634714405e+05, 3.182517168759107e+04, 3.982006745748846e+04, 6.954265298711929e+05
384, -1.171021000000000e-01, -1.493550000000000e-02, 3.176292744098323e-04, 1.346804229879593e-03, 3.204354348799096e-02, 1.251053056947236e-01, 1.423295794390794e+01, 4.865631795727083e+01, 3.210074268688632e+05, 1.335071466415864e+04, 3.310095762828334e+04, 3.146988181551466e+05
385, -1.049722000000000e-01, -1.499882000000000e-02, 3.183340408458983e-04, 1.617308600903662e-03, 3.168164485234005e-02, 1.547871013113074e-01, 1.395409211051740e+01, 6.480814048251470e+01, -3.170307850472920e+04, -3.353877220692091e+03, 2.330640474468448e+04, 5.455667898557477e+04
386, -9.253454000000000e-02, -1.499170000000000e-02, 3.117154768457694e-04, 1.892640113606409e-03, 3.001865910691794e-02, 1.863222945214645e-01, 1.269249869917866e+01, 8.286595706842802e+01, -3.430942236510467e+05, -1.847913976301292e+04, 1.167988543611366e+04, 3.254545000193393e+05
387, -7.982535000000000e-02, -1.491658000000000e-02, 2.984084865508003e-04, 2.167240388461974e-03, 2.702001135004925e-02, 2.191647979405057e-01, 1.042261358633401e+01, 1.025152037645016e+02, -6.187515750892302e+05, -3.219635706780263e+04, -8.369735450255757e+02, 5.865576066227637e+05
388, -6.688208000000000e-02, -1.477656000000000e-02, 2.791258195121981e-04, 2.435602174689138e-03, 2.265604211507780e-02, 2.527385440038004e-01, 7.138673503983009e+00, 1.234637006714159e+02, -8.624533407199630e+05, -4.457902989247879e+04, -1.352731930368459e+04, 8.183216615620703e+05
389, -5.374259000000000e-02, -1.457506000000000e-02, 2.546470016459248e-04, 2.692345410786276e-03, 1.691259676627039e-02, 2.864013362693852e-01, 2.850654472192721e+00, 1.453959717793273e+02, -1.076409235328525e+06, -5.564844941784285e+04, -2.581070147817805e+04, 1.022065238277957e+06
390, -4.044550000000000e-02, -1.431595000000000e-02, 2.258185663916881e-04, 2.932285304282433e-03, 9.855150133715329e-03, 3.194665034628390e-01, -2.341200419676817e+00, 1.679974131592220e+02, -1.261515936962664e+06, -6.538989160600210e+04, -3.720070544129687e+04, 1.198437769065164e+06
391, -2.702974000000000e-02, -1.400332000000000e-02, 1.935425483450510e-04, 3.150534781282324e-03, 1.671649373413665e-03, 3.513487947420186e-01, -8.222862678764553e+00, 1.911387314735388e+02, -1.417687685145741e+06, -7.373549593530185e+04, -4.729031214432803e+04, 1.347276134047644e+06
392, -1.353473000000000e-02, -1.364154000000000e-02, 1.587669389616300e-04, 3.342605321984831e-03, -7.376636329534544e-03, 3.817465281419203e-01, -1.455153612894530e+01, 2.150150363274954e+02, -1.543917108786595e+06, -8.054050370539827e+04, -5.575366960169049e+04, 1.467618811202414e+06
393, -9.637083000000000e-13, -1.323506000000000e-02, 1.224755591773238e-04, 3.504523865346834e-03, -1.708093884448639e-02, 4.107041569420244e-01, -2.117291144042202e+01, 2.401408474031944e+02, -1.637820822793357e+06, -8.558371962273668e+04, -6.231460486413717e+04, 1.557232309058933e+06
394, 1.353473000000000e-02, -1.278846000000000e-02, 8.569827090223945e-05, 3.632964542880034e-03, -2.740239821090371e-02, 4.384795497517610e-01, -2.813475371227995e+01, 2.672014075188212e+02, -1.694910378490498e+06, -8.860794313683403e+04, -6.665871630683160e+04, 1.611825378774578e+06
395, 2.702974000000000e-02, -1.230631000000000e-02, 4.953045648912424e-05, 3.725441933395301e-03, -3.847889615614392e-02, 4.652608964998910e-01, -3.571287624490954e+01, 2.967050854088316e+02, -1.709357438320339e+06, -8.960499815123598e+04, -6.839071428263740e+04, 1.625517495025544e+06
396, 4.044550000000000e-02, -1.179317000000000e-02, 1.511181756472834e-05, 3.780585170972130e-03, -5.046862750208633e-02, 4.909521067668485e-01, -4.423432380504038e+01, 3.286666704893182e+02, -1.678971888415968e+06, -8.908565698162904e+04, -6.731530399640577e+04, 1.595576268785982e+06
397, 5.374259000000000e-02, -1.125353000000000e-02, -1.654159156334222e-05, 3.798376170748219e-03, -6.337157891906425e-02, 5.152772376967887e-01, -5.383520983220561e+01, 3.626758881509367e+02, -1.612628454483860e+06, -8.749046193251915e+04, -6.407524925020838e+04, 1.530512478416769e+06
398, 6.688208000000000e-02, -1.069178000000000e-02, -4.482368384468337e-05, 3.780013797730540e-03, -7.705092856615225e-02, 5.380697845760232e-01, -6.442771746860716e+01, 3.982546735628184e+02, -1.529061240316938e+06, -8.433001293819760e+04, -5.992208222182828e+04, 1.449693396244351e+06
399, 7.982535000000000e-02, -1.011222000000000e-02, -6.960537020699682e-05, 3.727277862367718e-03, -9.137265325521809e-02, 5.593253890498655e-01, -7.584570054783637e+01, 4.350407716764718e+02, -1.444376402382468e+06, -8.003309082399106e+04, -5.566407996133153e+04, 1.368877872925893e+06
400, 9.253454000000000e-02, -9.518999000000000e-03, -9.098514717062705e-05, 3.642091861951494e-03, -1.062510229373208e-01, 5.790917246637182e-01, -8.794402827869047e+01, 4.727497627458734e+02, -1.363436110997030e+06, -7.560520527757719e+04, -5.146281240428015e+04, 1.291937353732146e+06
401, 1.049722000000000e-01, -8.916182000000000e-03, -1.090680227689697e-04, 3.526536734658123e-03, -1.216105582563518e-01, 5.974073920505134e-01, -1.005984807293450e+02, 5.111071544218981e+02, -1.284182423143033e+06, -7.144483074113567e+04, -4.729147143706368e+04, 1.216420322547877e+06
402, 1.171021000000000e-01, -8.307683999999999e-03, -1.239363255754037e-04, 3.382974647979403e-03, -1.373597379581779e-01, 6.143128479815809e-01, -1.136830595119224e+02, 5.498402277323269e+02, -1.204742066587139e+06, -6.743096691116646e+04, -4.320003670955735e+04, 1.140588229876584e+06
403, 1.288884000000000e-01, -7.697351000000000e-03, -1.356973141837381e-04, 3.214085924133248e-03, -1.533919540675998e-01, 6.298668948893722e-01, -1.270639202979593e+02, 5.886910102101895e+02, -1.125353538363842e+06, -6.343063198393171e+04, -3.926615002362389e+04, 1.064822793353461e+06
404, 1.402968000000000e-01, -7.088912000000000e-03, -1.445066779358303e-04, 3.022804178938438e-03, -1.695956301529942e-01, 6.441476281614400e-01, -1.406071463242277e+02, 6.274278619824887e+02, -1.047085861320484e+06, -5.944872423721121e+04, -3.554518279861991e+04, 9.901923826341999e+05
405, 1.512935000000000e-01, -6.486048000000000e-03, -1.505609873483098e-04, 2.812273972088959e-03, -1.858552415708696e-01, 6.572423820722944e-01, -1.541822175982845e+02, 6.658404205078095e+02, -9.707989944176290e+05, -5.555426342778518e+04, -3.206043536391578e+04, 9.174880945644836e+05
406, 1.618466000000000e-01, -5.892357000000000e-03, -1.540862963946229e-04, 2.585785424746906e-03, -2.020519951263146e-01, 6.692445928438477e-01, -1.676646556053769e+02, 7.037418022754979e+02, -8.970974144453618e+05, -5.179505180890518e+04, -2.884908089358595e+04, 8.472692382899277e+05
407, 1.719248000000000e-01, -5.311408000000000e-03, -1.553320328007594e-04, 2.346762789875687e-03, -2.180621863728738e-01, 6.802522844486552e-01, -1.809349428790282e+02, 7.409635712139201e+02, -8.265733635586661e+05, -4.819859783974553e+04, -2.594012066585528e+04, 7.801018108866437e+05
408, 1.814989000000000e-01, -4.746728000000000e-03, -1.545684686950675e-04, 2.098692795649042e-03, -2.337618130015977e-01, 6.903701093542343e-01, -1.938815281526545e+02, 7.773611480058521e+02, -7.598293662972137e+05, -4.477967752450464e+04, -2.336910861295802e+04, 7.165755496550277e+05
409, 1.905404000000000e-01, -4.201807000000000e-03, -1.520806488649204e-04, 1.845118205602126e-03, -2.490269926892755e-01, 6.997063782903208e-01, -2.064007678246491e+02, 8.128070571695006e+02, -6.973639250192351e+05, -4.155815201792240e+04, -2.114159438689407e+04, 6.571674672065936e+05
410, 1.990233000000000e-01, -3.680033000000000e-03, -1.481613236272618e-04, 1.589556304651022e-03, -2.637389778098205e-01, 7.083733076313474e-01, -2.184005558800970e+02, 8.471943489608836e+02, -6.394566491785205e+05, -3.854461065767000e+04, -1.926258465575632e+04, 6.021457188337097e+05
411, 2.069223000000000e-01, -3.184785000000000e-03, -1.431057231691812e-04, 1.335524005362136e-03, -2.777832093128673e-01, 7.164825768558520e-01, -2.297986857636308e+02, 8.804232582212553e+02, -5.861109912336883e+05, -3.573554887858930e+04, -1.768252010360634e+04, 5.515104836867824e+05
412, 2.142143000000000e-01, -2.719501000000000e-03, -1.372096838771368e-04, 1.086481026318896e-03, -2.910535739657412e-01, 7.241425081572066e-01, -2.405245219258382e+02, 9.123970507922372e+02, -5.369397938620553e+05, -3.310071585409802e+04, -1.634334263298783e+04, 5.048982431357683e+05
413, 2.208774000000000e-01, -2.287439000000000e-03, -1.307570957605265e-04, 8.458620835994292e-04, -3.034520272078702e-01, 7.314482494969967e-01, -2.505177699935311e+02, 9.430019344133106e+02, -4.911045595224436e+05, -3.062071979658756e+04, -1.514312025241427e+04, 4.614787351683544e+05
414, 2.268939000000000e-01, -1.891072000000000e-03, -1.239963731992447e-04, 6.169789153418267e-04, -3.148943091986411e-01, 7.384719254305514e-01, -2.597326947056010e+02, 9.721002213979336e+02, -4.474331620611509e+05, -2.827122601129936e+04, -1.393171796767910e+04, 4.200870144329429e+05
415, 2.322460000000000e-01, -1.533172000000000e-03, -1.171744966930085e-04, 4.031953937892183e-04, -3.252990325669214e-01, 7.452448413512389e-01, -2.681238106871472e+02, 9.994881899807220e+02, -4.045091518370425e+05, -2.600494320492118e+04, -1.225218249359619e+04, 3.792965856103294e+05
416, 2.369133000000000e-01, -1.218487000000000e-03, -1.106085062601916e-04, 2.080819704636440e-04, -3.345766865454285e-01, 7.517392401066116e-01, -2.756274554979238e+02, 1.024855125893343e+03, -3.599600652305073e+05, -2.367514442358429e+04, -9.522265839542772e+03, 3.368237553216729e+05
417, 2.408804000000000e-01, -9.500542000000000e-04, -1.045530897119903e-04, 3.515489753091493e-05, -3.426436385770446e-01, 7.578527980882397e-01, -2.821828195898353e+02, 1.047788583709859e+03, -3.102104351712270e+05, -2.121031975502353e+04, -5.746229712843779e+03, 2.892285313281352e+05
418, 2.441551000000000e-01, -7.221023000000000e-04, -9.889937674972091e-05, -1.129927190524117e-04, -3.494675641296994e-01, 7.634195593665112e-01, -2.877951882670094e+02, 1.067870778930414e+03, -2.548001642212357e+05, -1.914743914080050e+04, -1.336633678446786e+03, 2.356678874946618e+05
419, 2.467325000000000e-01, -5.343920000000000e-04, -9.376393696272301e-05, -2.332839336819499e-04, -3.549741075113433e-01, 7.681951959939610e-01, -2.924035922118025e+02, 1.084525294806667e+03, -1.987629772987699e+05, -1.682762050630463e+04, 4.852085846841699e+03, 1.821939762985103e+05
420, 2.485345000000000e-01, -4.176267000000000e-04, -9.066349521900322e-05, -3.193518285599241e-04, -3.588670923046371e-01, 7.718058323781047e-01, -2.956178117083369e+02, 1.096683344389609e+03, -1.368083904656710e+05, -1.226720912469666e+04, 1.241677970381873e+04, 1.269929585554180e+05
421, 2.495362000000000e-01, -3.807847000000000e-04, -9.019216683348186e-05, -3.677686226995491e-04, -3.609984421444425e-01, 7.739488286889280e-01, -2.972488259167151e+02, 1.103639267429016e+03, -6.040755368892290e+04, -1.058223359975244e+03, 1.002454560071793e+04, 6.264430595431670e+04
422, 2.500000000000000e-01, -3.150000000000000e-04, -8.756758067890818e-05, -3.903056885393082e-04, -3.621023164475570e-01, 7.748472928751040e-01, -2.983608222454405e+02, 1.106806289631517e+03, -1.592260336674131e+04, 1.973097667750173e+04, -1.157399368595267e+04, 4.250890600028580e+04
