"PointID","x","y","Displacement_1","Displacement_2","Sxx","Syy","Sxy","Von_Mises_Stress"
0,-6.830000000000000e-02,1.000000000000000e-04,0.000000000000000e+00,0.000000000000000e+00,6.901727038129294e-310,6.901727038129294e-310,0.000000000000000e+00,0.000000000000000e+00,
1,0.000000000000000e+00,1.000000000000000e-04,-3.624842364817318e-05,9.658169472378013e-03,6.931968926523226e-310,6.931968926523226e-310,0.000000000000000e+00,0.000000000000000e+00,
2,6.830000000000000e-02,1.000000000000000e-04,0.000000000000000e+00,0.000000000000000e+00,6.912296141725745e-310,6.912296141725745e-310,0.000000000000000e+00,0.000000000000000e+00,
3,6.830000000000000e-02,-1.000000000000000e-04,0.000000000000000e+00,0.000000000000000e+00,6.912296141725745e-310,6.912296141725745e-310,0.000000000000000e+00,0.000000000000000e+00,
4,0.000000000000000e+00,-1.000000000000000e-04,-3.871515813575493e-05,9.658184213380218e-03,6.931968926523226e-310,6.931968926523226e-310,0.000000000000000e+00,0.000000000000000e+00,
5,-6.830000000000000e-02,-1.000000000000000e-04,0.000000000000000e+00,0.000000000000000e+00,6.901727038129294e-310,6.901727038129294e-310,0.000000000000000e+00,0.000000000000000e+00,
6,-6.743544303797798e-02,1.000000000000000e-04,-2.102035449763226e-06,5.376022687913602e-05,6.901727038129294e-310,6.901727038129294e-310,0.000000000000000e+00,0.000000000000000e+00,
7,-6.657088607595596e-02,1.000000000000000e-04,-7.192678884201163e-06,1.824919758307598e-04,6.901727038129294e-310,6.901727038129294e-310,0.000000000000000e+00,0.000000000000000e+00,
8,-6.570632911393393e-02,1.000000000000000e-04,-1.693080422363577e-05,3.543743084412277e-04,6.901727038129294e-310,6.901727038129294e-310,0.000000000000000e+00,0.000000000000000e+00,
9,-6.484177215191191e-02,1.000000000000000e-04,-3.014052008947065e-05,5.502982119865355e-04,6.901727038129294e-310,6.901727038129294e-310,0.000000000000000e+00,0.000000000000000e+00,
10,-6.397721518988989e-02,1.000000000000000e-04,-4.545068102188080e-05,7.592247543894324e-04,6.901727038129294e-310,6.901727038129294e-310,0.000000000000000e+00,0.000000000000000e+00,
11,-6.311265822786787e-02,1.000000000000000e-04,-6.182372603997859e-05,9.747208030897865e-04,6.901727038129294e-310,6.901727038129294e-310,0.000000000000000e+00,0.000000000000000e+00,
12,-6.224810126584584e-02,1.000000000000000e-04,-7.858983469182014e-05,1.193062329258497e-03,6.901727038129294e-310,6.901727038129294e-310,0.000000000000000e+00,0.000000000000000e+00,
13,-6.138354430382382e-02,1.000000000000000e-04,-9.534232652239960e-05,1.412097739988201e-03,6.901727038129294e-310,6.901727038129294e-310,0.000000000000000e+00,0.000000000000000e+00,
14,-6.051898734180180e-02,1.000000000000000e-04,-1.118438013909826e-04,1.630587314626709e-03,6.901727038129294e-310,6.901727038129294e-310,0.000000000000000e+00,0.000000000000000e+00,
15,-5.965443037977977e-02,1.000000000000000e-04,-1.279585782445842e-04,1.847815817903654e-03,6.901727038129294e-310,6.901727038129294e-310,0.000000000000000e+00,0.000000000000000e+00,
16,-5.878987341775775e-02,1.000000000000000e-04,-1.436105282198260e-04,2.063368724941962e-03,6.901727038129294e-310,6.901727038129294e-310,0.000000000000000e+00,0.000000000000000e+00,
17,-5.792531645573573e-02,1.000000000000000e-04,-1.587574954736865e-04,2.277003372654864e-03,6.901727038129294e-310,6.901727038129294e-310,0.000000000000000e+00,0.000000000000000e+00,
18,-5.706075949371370e-02,1.000000000000000e-04,-1.733758878031158e-04,2.488572323455317e-03,6.901727038129294e-310,6.901727038129294e-310,0.000000000000000e+00,0.000000000000000e+00,
19,-5.619620253169168e-02,1.000000000000000e-04,-1.874523041974942e-04,2.697980508086689e-03,6.901727038129294e-310,6.901727038129294e-310,0.000000000000000e+00,0.000000000000000e+00,
20,-5.533164556966966e-02,1.000000000000000e-04,-2.009786156068723e-04,2.905160561564163e-03,6.901727038129294e-310,6.901727038129294e-310,0.000000000000000e+00,0.000000000000000e+00,
21,-5.446708860764764e-02,1.000000000000000e-04,-2.139493370287377e-04,3.110059009324386e-03,6.901727038129294e-310,6.901727038129294e-310,0.000000000000000e+00,0.000000000000000e+00,
22,-5.360253164562562e-02,1.000000000000000e-04,-2.263602295937126e-04,3.312628511706065e-03,6.901727038129294e-310,6.901727038129294e-310,0.000000000000000e+00,0.000000000000000e+00,
23,-5.273797468360359e-02,1.000000000000000e-04,-2.382076317305453e-04,3.512824007886087e-03,6.901727038129294e-310,6.901727038129294e-310,0.000000000000000e+00,0.000000000000000e+00,
24,-5.187341772158157e-02,1.000000000000000e-04,-2.494880175044471e-04,3.710600306764374e-03,6.901727038129294e-310,6.901727038129294e-310,0.000000000000000e+00,0.000000000000000e+00,
25,-5.100886075955900e-02,1.000000000000000e-04,-2.601980159755518e-04,3.905911312129211e-03,6.947728935124893e-310,6.947728935124893e-310,0.000000000000000e+00,0.000000000000000e+00,
26,-5.014430379753478e-02,1.000000000000000e-04,-2.703344511992025e-04,4.098709986617535e-03,6.947728935124893e-310,6.947728935124893e-310,0.000000000000000e+00,0.000000000000000e+00,
27,-4.927974683551056e-02,1.000000000000000e-04,-2.798942797267592e-04,4.288948152263894e-03,6.947728935124893e-310,6.947728935124893e-310,0.000000000000000e+00,0.000000000000000e+00,
28,-4.841518987348634e-02,1.000000000000000e-04,-2.888746926804953e-04,4.476576481319572e-03,6.947728935124893e-310,6.947728935124893e-310,0.000000000000000e+00,0.000000000000000e+00,
29,-4.755063291146212e-02,1.000000000000000e-04,-2.972732718498636e-04,4.661545201714646e-03,6.947728935124893e-310,6.947728935124893e-310,0.000000000000000e+00,0.000000000000000e+00,
30,-4.668607594943790e-02,1.000000000000000e-04,-3.050879074097075e-04,4.843803942085765e-03,6.947728935124893e-310,6.947728935124893e-310,0.000000000000000e+00,0.000000000000000e+00,
31,-4.582151898741368e-02,1.000000000000000e-04,-3.123169580422741e-04,5.023301910962261e-03,6.947728935124893e-310,6.947728935124893e-310,0.000000000000000e+00,0.000000000000000e+00,
32,-4.495696202538947e-02,1.000000000000000e-04,-3.189594668516480e-04,5.199988887111329e-03,6.947728935124893e-310,6.947728935124893e-310,0.000000000000000e+00,0.000000000000000e+00,
33,-4.409240506336524e-02,1.000000000000000e-04,-3.250151338177629e-04,5.373815396152583e-03,6.947728935124893e-310,6.947728935124893e-310,0.000000000000000e+00,0.000000000000000e+00,
34,-4.322784810134103e-02,1.000000000000000e-04,-3.304841798280441e-04,5.544732543765855e-03,6.947728935124893e-310,6.947728935124893e-310,0.000000000000000e+00,0.000000000000000e+00,
35,-4.236329113931681e-02,1.000000000000000e-04,-3.353673362135705e-04,5.712691329108907e-03,6.947728935124893e-310,6.947728935124893e-310,0.000000000000000e+00,0.000000000000000e+00,
36,-4.149873417729259e-02,1.000000000000000e-04,-3.396661406279884e-04,5.877643897189458e-03,6.947728935124893e-310,6.947728935124893e-310,0.000000000000000e+00,0.000000000000000e+00,
37,-4.063417721526837e-02,1.000000000000000e-04,-3.433828130358024e-04,6.039543429390852e-03,6.947728935124893e-310,6.947728935124893e-310,0.000000000000000e+00,0.000000000000000e+00,
38,-3.976962025324415e-02,1.000000000000000e-04,-3.465202844837371e-04,6.198344323362704e-03,6.947728935124893e-310,6.947728935124893e-310,0.000000000000000e+00,0.000000000000000e+00,
39,-3.890506329121993e-02,1.000000000000000e-04,-3.490821491787114e-04,6.354001906581140e-03,6.947728935124893e-310,6.947728935124893e-310,0.000000000000000e+00,0.000000000000000e+00,
40,-3.804050632919571e-02,1.000000000000000e-04,-3.510727235677885e-04,6.506472847062876e-03,6.947728935124893e-310,6.947728935124893e-310,0.000000000000000e+00,0.000000000000000e+00,
41,-3.717594936717150e-02,1.000000000000000e-04,-3.524969960270717e-04,6.655714924407431e-03,6.947728935124893e-310,6.947728935124893e-310,0.000000000000000e+00,0.000000000000000e+00,
42,-3.631139240514728e-02,1.000000000000000e-04,-3.533607450410908e-04,6.801687682518434e-03,6.947728935124893e-310,6.947728935124893e-310,0.000000000000000e+00,0.000000000000000e+00,
43,-3.544683544312306e-02,1.000000000000000e-04,-3.536704292638464e-04,6.944352126048324e-03,6.947728935124893e-310,6.947728935124893e-310,0.000000000000000e+00,0.000000000000000e+00,
44,-3.458227848109884e-02,1.000000000000000e-04,-3.534331806051593e-04,7.083670841733553e-03,6.947728935124893e-310,6.947728935124893e-310,0.000000000000000e+00,0.000000000000000e+00,
45,-3.371772151907242e-02,1.000000000000000e-04,-3.526567784447420e-04,7.219607772838424e-03,6.920336216895902e-310,6.920336216895902e-310,0.000000000000000e+00,0.000000000000000e+00,
46,-3.285316455704381e-02,1.000000000000000e-04,-3.513497241697544e-04,7.352128710570449e-03,6.920336216895902e-310,6.920336216895902e-310,0.000000000000000e+00,0.000000000000000e+00,
47,-3.198860759501521e-02,1.000000000000000e-04,-3.495210638524521e-04,7.481201024203904e-03,6.920336216895902e-310,6.920336216895902e-310,0.000000000000000e+00,0.000000000000000e+00,
48,-3.112405063298660e-02,1.000000000000000e-04,-3.471803121175889e-04,7.606792966158881e-03,6.920336216895902e-310,6.920336216895902e-310,0.000000000000000e+00,0.000000000000000e+00,
49,-3.025949367095799e-02,1.000000000000000e-04,-3.443375347394202e-04,7.728873862084405e-03,6.920336216895902e-310,6.920336216895902e-310,0.000000000000000e+00,0.000000000000000e+00,
50,-2.939493670892938e-02,1.000000000000000e-04,-3.410032698994497e-04,7.847414174722541e-03,6.920336216895902e-310,6.920336216895902e-310,0.000000000000000e+00,0.000000000000000e+00,
51,-2.853037974690077e-02,1.000000000000000e-04,-3.371885760165937e-04,7.962385233711186e-03,6.920336216895902e-310,6.920336216895902e-310,0.000000000000000e+00,0.000000000000000e+00,
52,-2.766582278487216e-02,1.000000000000000e-04,-3.329051887182072e-04,8.073760476793163e-03,6.920336216895902e-310,6.920336216895902e-310,0.000000000000000e+00,0.000000000000000e+00,
53,-2.680126582284355e-02,1.000000000000000e-04,-3.281653844059788e-04,8.181515381865966e-03,6.920336216895902e-310,6.920336216895902e-310,0.000000000000000e+00,0.000000000000000e+00,
54,-2.593670886081494e-02,1.000000000000000e-04,-3.229819110807977e-04,8.285627326268133e-03,6.920336216895902e-310,6.920336216895902e-310,0.000000000000000e+00,0.000000000000000e+00,
55,-2.507215189878632e-02,1.000000000000000e-04,-3.173679047891423e-04,8.386074950287739e-03,6.920336216895902e-310,6.920336216895902e-310,0.000000000000000e+00,0.000000000000000e+00,
56,-2.420759493675772e-02,1.000000000000000e-04,-3.113368567271513e-04,8.482838227000463e-03,6.920336216895902e-310,6.920336216895902e-310,0.000000000000000e+00,0.000000000000000e+00,
57,-2.334303797472911e-02,1.000000000000000e-04,-3.049025582849258e-04,8.575897782882419e-03,6.920336216895902e-310,6.920336216895902e-310,0.000000000000000e+00,0.000000000000000e+00,
58,-2.247848101270049e-02,1.000000000000000e-04,-2.980792390194660e-04,8.665235654125161e-03,6.920336216895902e-310,6.920336216895902e-310,0.000000000000000e+00,0.000000000000000e+00,
59,-2.161392405067188e-02,1.000000000000000e-04,-2.908815429494452e-04,8.750835538177361e-03,6.920336216895902e-310,6.920336216895902e-310,0.000000000000000e+00,0.000000000000000e+00,
60,-2.074936708864328e-02,1.000000000000000e-04,-2.833244705729107e-04,8.832683154601109e-03,6.920336216895902e-310,6.920336216895902e-310,0.000000000000000e+00,0.000000000000000e+00,
61,-1.988481012661467e-02,1.000000000000000e-04,-2.754232649911257e-04,8.910765523580711e-03,6.920336216895902e-310,6.920336216895902e-310,0.000000000000000e+00,0.000000000000000e+00,
62,-1.902025316458605e-02,1.000000000000000e-04,-2.671934233027024e-04,8.985071055384791e-03,6.920336216895902e-310,6.920336216895902e-310,0.000000000000000e+00,0.000000000000000e+00,
63,-1.815569620255744e-02,1.000000000000000e-04,-2.586506578052872e-04,9.055589191176083e-03,6.920336216895902e-310,6.920336216895902e-310,0.000000000000000e+00,0.000000000000000e+00,
64,-1.729113924052884e-02,1.000000000000000e-04,-2.498109344449917e-04,9.122310807113329e-03,6.920336216895902e-310,6.920336216895902e-310,0.000000000000000e+00,0.000000000000000e+00,
65,-1.642658227850187e-02,1.000000000000000e-04,-2.406904195808918e-04,9.185228156770982e-03,6.931968926523226e-310,6.931968926523226e-310,0.000000000000000e+00,0.000000000000000e+00,
66,-1.556202531647546e-02,1.000000000000000e-04,-2.313055044343953e-04,9.244335114212706e-03,6.931968926523226e-310,6.931968926523226e-310,0.000000000000000e+00,0.000000000000000e+00,
67,-1.469746835444904e-02,1.000000000000000e-04,-2.216727599144903e-04,9.299627363222981e-03,6.931968926523226e-310,6.931968926523226e-310,0.000000000000000e+00,0.000000000000000e+00,
68,-1.383291139242263e-02,1.000000000000000e-04,-2.118088562809723e-04,9.351102183813197e-03,6.931968926523226e-310,6.931968926523226e-310,0.000000000000000e+00,0.000000000000000e+00,
69,-1.296835443039621e-02,1.000000000000000e-04,-2.017305540188532e-04,9.398758122437257e-03,6.931968926523226e-310,6.931968926523226e-310,0.000000000000000e+00,0.000000000000000e+00,
70,-1.210379746836981e-02,1.000000000000000e-04,-1.914546946325038e-04,9.442595179001208e-03,6.931968926523226e-310,6.931968926523226e-310,0.000000000000000e+00,0.000000000000000e+00,
71,-1.123924050634338e-02,1.000000000000000e-04,-1.809981661909153e-04,9.482614640944796e-03,6.931968926523226e-310,6.931968926523226e-310,0.000000000000000e+00,0.000000000000000e+00,
72,-1.037468354431697e-02,1.000000000000000e-04,-1.703778854068456e-04,9.518819256179180e-03,6.931968926523226e-310,6.931968926523226e-310,0.000000000000000e+00,0.000000000000000e+00,
73,-9.510126582290550e-03,1.000000000000000e-04,-1.596107088057278e-04,9.551212822311989e-03,6.931968926523226e-310,6.931968926523226e-310,0.000000000000000e+00,0.000000000000000e+00,
74,-8.645569620264144e-03,1.000000000000000e-04,-1.487134545369124e-04,9.579799817710608e-03,6.931968926523226e-310,6.931968926523226e-310,0.000000000000000e+00,0.000000000000000e+00,
75,-7.781012658237732e-03,1.000000000000000e-04,-1.377029346481920e-04,9.604585687486589e-03,6.931968926523226e-310,6.931968926523226e-310,0.000000000000000e+00,0.000000000000000e+00,
76,-6.916455696211313e-03,1.000000000000000e-04,-1.265959326146766e-04,9.625577125681699e-03,6.931968926523226e-310,6.931968926523226e-310,0.000000000000000e+00,0.000000000000000e+00,
77,-6.051898734184900e-03,1.000000000000000e-04,-1.154091866497613e-04,9.642782261054545e-03,6.931968926523226e-310,6.931968926523226e-310,0.000000000000000e+00,0.000000000000000e+00,
78,-5.187341772158474e-03,1.000000000000000e-04,-1.041593444947373e-04,9.656210798466212e-03,6.931968926523226e-310,6.931968926523226e-310,0.000000000000000e+00,0.000000000000000e+00,
79,-4.322784810132069e-03,1.000000000000000e-04,-9.286291527950934e-05,9.665873791372192e-03,6.931968926523226e-310,6.931968926523226e-310,0.000000000000000e+00,0.000000000000000e+00,
80,-3.458227848105663e-03,1.000000000000000e-04,-8.153626084722931e-05,9.671783471988552e-03,6.931968926523226e-310,6.931968926523226e-310,0.000000000000000e+00,0.000000000000000e+00,
81,-2.593670886079244e-03,1.000000000000000e-04,-7.019557401329062e-05,9.673953191545884e-03,6.931968926523226e-310,6.931968926523226e-310,0.000000000000000e+00,0.000000000000000e+00,
82,-1.729113924052825e-03,1.000000000000000e-04,-5.885685968365831e-05,9.672397213301147e-03,6.931968926523226e-310,6.931968926523226e-310,0.000000000000000e+00,0.000000000000000e+00,
83,-8.645569620264193e-04,1.000000000000000e-04,-4.753594010205372e-05,9.667130647161671e-03,6.931968926523226e-310,6.931968926523226e-310,0.000000000000000e+00,0.000000000000000e+00,
84,8.645569620226498e-04,1.000000000000000e-04,-2.500968810132645e-05,9.645530252949163e-03,6.926090691228515e-310,6.926090691228515e-310,0.000000000000000e+00,0.000000000000000e+00,
85,1.729113924045300e-03,1.000000000000000e-04,-1.383489371455773e-05,9.629230025947344e-03,6.926090691228515e-310,6.926090691228515e-310,0.000000000000000e+00,0.000000000000000e+00,
86,2.593670886067950e-03,1.000000000000000e-04,-2.738994869466137e-06,9.609286350187665e-03,6.926090691228515e-310,6.926090691228515e-310,0.000000000000000e+00,0.000000000000000e+00,
87,3.458227848090599e-03,1.000000000000000e-04,8.263284623573830e-06,9.585717508131022e-03,6.926090691228515e-310,6.926090691228515e-310,0.000000000000000e+00,0.000000000000000e+00,
88,4.322784810113249e-03,1.000000000000000e-04,1.915744421845473e-05,9.558542478624579e-03,6.926090691228515e-310,6.926090691228515e-310,0.000000000000000e+00,0.000000000000000e+00,
89,5.187341772135899e-03,1.000000000000000e-04,2.992922754879645e-05,9.527781357777895e-03,6.926090691228515e-310,6.926090691228515e-310,0.000000000000000e+00,0.000000000000000e+00,
90,6.051898734158549e-03,1.000000000000000e-04,4.056469194881881e-05,9.493455272754246e-03,6.926090691228515e-310,6.926090691228515e-310,0.000000000000000e+00,0.000000000000000e+00,
91,6.916455696181199e-03,1.000000000000000e-04,5.105016775619206e-05,9.455586110940110e-03,6.926090691228515e-310,6.926090691228515e-310,0.000000000000000e+00,0.000000000000000e+00,
92,7.781012658203849e-03,1.000000000000000e-04,6.137228466397275e-05,9.414196834548685e-03,6.926090691228515e-310,6.926090691228515e-310,0.000000000000000e+00,0.000000000000000e+00,
93,8.645569620226497e-03,1.000000000000000e-04,7.151798893005495e-05,9.369311319486449e-03,6.926090691228515e-310,6.926090691228515e-310,0.000000000000000e+00,0.000000000000000e+00,
94,9.510126582249149e-03,1.000000000000000e-04,8.147458573994380e-05,9.320954442646266e-03,6.926090691228515e-310,6.926090691228515e-310,0.000000000000000e+00,0.000000000000000e+00,
95,1.037468354427180e-02,1.000000000000000e-04,9.122973510280609e-05,9.269151485865275e-03,6.926090691228515e-310,6.926090691228515e-310,0.000000000000000e+00,0.000000000000000e+00,
96,1.123924050629445e-02,1.000000000000000e-04,1.007713983147469e-04,9.213928031100297e-03,6.926090691228515e-310,6.926090691228515e-310,0.000000000000000e+00,0.000000000000000e+00,
97,1.210379746831710e-02,1.000000000000000e-04,1.100878682408494e-04,9.155309940624530e-03,6.926090691228515e-310,6.926090691228515e-310,0.000000000000000e+00,0.000000000000000e+00,
98,1.296835443033975e-02,1.000000000000000e-04,1.191677158755828e-04,9.093323232395183e-03,6.926090691228515e-310,6.926090691228515e-310,0.000000000000000e+00,0.000000000000000e+00,
99,1.383291139236240e-02,1.000000000000000e-04,1.279998411852773e-04,9.027994546424549e-03,6.926090691228515e-310,6.926090691228515e-310,0.000000000000000e+00,0.000000000000000e+00,
100,1.469746835438505e-02,1.000000000000000e-04,1.365734594239923e-04,8.959350863802895e-03,6.926090691228515e-310,6.926090691228515e-310,0.000000000000000e+00,0.000000000000000e+00,
101,1.556202531640770e-02,1.000000000000000e-04,1.448781345518019e-04,8.887419902288021e-03,6.926090691228515e-310,6.926090691228515e-310,0.000000000000000e+00,0.000000000000000e+00,
102,1.642658227843035e-02,1.000000000000000e-04,1.529037787269930e-04,8.812229873920586e-03,6.926090691228515e-310,6.926090691228515e-310,0.000000000000000e+00,0.000000000000000e+00,
103,1.729113924045334e-02,1.000000000000000e-04,1.606406789084031e-04,8.733809770394231e-03,6.899819563497903e-310,6.899819563497903e-310,0.000000000000000e+00,0.000000000000000e+00,
104,1.815569620247735e-02,1.000000000000000e-04,1.680794903671644e-04,8.652189024609052e-03,6.899819563497903e-310,6.899819563497903e-310,0.000000000000000e+00,0.000000000000000e+00,
105,1.902025316450135e-02,1.000000000000000e-04,1.752112488702892e-04,8.567397544170255e-03,6.899819563497903e-310,6.899819563497903e-310,0.000000000000000e+00,0.000000000000000e+00,
106,1.988481012652537e-02,1.000000000000000e-04,1.820273082217243e-04,8.479465335790267e-03,6.899819563497903e-310,6.899819563497903e-310,0.000000000000000e+00,0.000000000000000e+00,
107,2.074936708854937e-02,1.000000000000000e-04,1.885193885537851e-04,8.388422860313421e-03,6.899819563497903e-310,6.899819563497903e-310,0.000000000000000e+00,0.000000000000000e+00,
108,2.161392405057339e-02,1.000000000000000e-04,1.946795370648137e-04,8.294300638119045e-03,6.899819563497903e-310,6.899819563497903e-310,0.000000000000000e+00,0.000000000000000e+00,
109,2.247848101259740e-02,1.000000000000000e-04,2.005001777002635e-04,8.197129523374161e-03,6.899819563497903e-310,6.899819563497903e-310,0.000000000000000e+00,0.000000000000000e+00,
110,2.334303797462140e-02,1.000000000000000e-04,2.059740197629915e-04,8.096940080033269e-03,6.899819563497903e-310,6.899819563497903e-310,0.000000000000000e+00,0.000000000000000e+00,
111,2.420759493664541e-02,1.000000000000000e-04,2.110940764088633e-04,7.993763194180509e-03,6.899819563497903e-310,6.899819563497903e-310,0.000000000000000e+00,0.000000000000000e+00,
112,2.507215189866942e-02,1.000000000000000e-04,2.158536833183086e-04,7.887630091199645e-03,6.899819563497903e-310,6.899819563497903e-310,0.000000000000000e+00,0.000000000000000e+00,
113,2.593670886069343e-02,1.000000000000000e-04,2.202466038037403e-04,7.778572712829362e-03,6.899819563497903e-310,6.899819563497903e-310,0.000000000000000e+00,0.000000000000000e+00,
114,2.680126582271744e-02,1.000000000000000e-04,2.242669437250725e-04,7.666622947839354e-03,6.899819563497903e-310,6.899819563497903e-310,0.000000000000000e+00,0.000000000000000e+00,
115,2.766582278474145e-02,1.000000000000000e-04,2.279091440332321e-04,7.551812856389054e-03,6.899819563497903e-310,6.899819563497903e-310,0.000000000000000e+00,0.000000000000000e+00,
116,2.853037974676546e-02,1.000000000000000e-04,2.311679406885632e-04,7.434174237935512e-03,6.899819563497903e-310,6.899819563497903e-310,0.000000000000000e+00,0.000000000000000e+00,
117,2.939493670878947e-02,1.000000000000000e-04,2.340383484582416e-04,7.313738818207802e-03,6.899819563497903e-310,6.899819563497903e-310,0.000000000000000e+00,0.000000000000000e+00,
118,3.025949367081348e-02,1.000000000000000e-04,2.365156199622434e-04,7.190538423414456e-03,6.899819563497903e-310,6.899819563497903e-310,0.000000000000000e+00,0.000000000000000e+00,
119,3.112405063283749e-02,1.000000000000000e-04,2.385954268100438e-04,7.064605826896617e-03,6.899819563497903e-310,6.899819563497903e-310,0.000000000000000e+00,0.000000000000000e+00,
120,3.198860759486150e-02,1.000000000000000e-04,2.402738571005345e-04,6.935974048998646e-03,6.899819563497903e-310,6.899819563497903e-310,0.000000000000000e+00,0.000000000000000e+00,
121,3.285316455688551e-02,1.000000000000000e-04,2.415473180622539e-04,6.804676094161812e-03,6.899819563497903e-310,6.899819563497903e-310,0.000000000000000e+00,0.000000000000000e+00,
122,3.371772151890952e-02,1.000000000000000e-04,2.424124910264147e-04,6.670744760587150e-03,6.899819563497903e-310,6.899819563497903e-310,0.000000000000000e+00,0.000000000000000e+00,
123,3.458227848093572e-02,1.000000000000000e-04,2.428662909487891e-04,6.534212864654867e-03,6.920058130733321e-310,6.920058130733321e-310,0.000000000000000e+00,0.000000000000000e+00,
124,3.544683544296412e-02,1.000000000000000e-04,2.429059866604284e-04,6.395113867373816e-03,6.920058130733321e-310,6.920058130733321e-310,0.000000000000000e+00,0.000000000000000e+00,
125,3.631139240499252e-02,1.000000000000000e-04,2.425292602321607e-04,6.253481838448136e-03,6.920058130733321e-310,6.920058130733321e-310,0.000000000000000e+00,0.000000000000000e+00,
126,3.717594936702093e-02,1.000000000000000e-04,2.417341500281020e-04,6.109351478819483e-03,6.920058130733321e-310,6.920058130733321e-310,0.000000000000000e+00,0.000000000000000e+00,
127,3.804050632904932e-02,1.000000000000000e-04,2.405192045549005e-04,5.962758380622223e-03,6.920058130733321e-310,6.920058130733321e-310,0.000000000000000e+00,0.000000000000000e+00,
128,3.890506329107773e-02,1.000000000000000e-04,2.388832885028573e-04,5.813738020658633e-03,6.920058130733321e-310,6.920058130733321e-310,0.000000000000000e+00,0.000000000000000e+00,
129,3.976962025310612e-02,1.000000000000000e-04,2.368255814952502e-04,5.662326464385880e-03,6.920058130733321e-310,6.920058130733321e-310,0.000000000000000e+00,0.000000000000000e+00,
130,4.063417721513453e-02,1.000000000000000e-04,2.343457037839362e-04,5.508560597396563e-03,6.920058130733321e-310,6.920058130733321e-310,0.000000000000000e+00,0.000000000000000e+00,
131,4.149873417716293e-02,1.000000000000000e-04,2.314437414416799e-04,5.352477976603901e-03,6.920058130733321e-310,6.920058130733321e-310,0.000000000000000e+00,0.000000000000000e+00,
132,4.236329113919133e-02,1.000000000000000e-04,2.281201505529633e-04,5.194116395335827e-03,6.920058130733321e-310,6.920058130733321e-310,0.000000000000000e+00,0.000000000000000e+00,
133,4.322784810121974e-02,1.000000000000000e-04,2.243757297975896e-04,5.033513978589540e-03,6.920058130733321e-310,6.920058130733321e-310,0.000000000000000e+00,0.000000000000000e+00,
134,4.409240506324814e-02,1.000000000000000e-04,2.202116071285646e-04,4.870709569981724e-03,6.920058130733321e-310,6.920058130733321e-310,0.000000000000000e+00,0.000000000000000e+00,
135,4.495696202527653e-02,1.000000000000000e-04,2.156295092760577e-04,4.705743675385503e-03,6.920058130733321e-310,6.920058130733321e-310,0.000000000000000e+00,0.000000000000000e+00,
136,4.582151898730494e-02,1.000000000000000e-04,2.106317443766020e-04,4.538657699688338e-03,6.920058130733321e-310,6.920058130733321e-310,0.000000000000000e+00,0.000000000000000e+00,
137,4.668607594933333e-02,1.000000000000000e-04,2.052210286026541e-04,4.369493557826674e-03,6.920058130733321e-310,6.920058130733321e-310,0.000000000000000e+00,0.000000000000000e+00,
138,4.755063291136175e-02,1.000000000000000e-04,1.994004767665549e-04,4.198293996899322e-03,6.920058130733321e-310,6.920058130733321e-310,0.000000000000000e+00,0.000000000000000e+00,
139,4.841518987339014e-02,1.000000000000000e-04,1.931737948638799e-04,4.025103158101439e-03,6.920058130733321e-310,6.920058130733321e-310,0.000000000000000e+00,0.000000000000000e+00,
140,4.927974683541853e-02,1.000000000000000e-04,1.865452173648426e-04,3.849966171987204e-03,6.920058130733321e-310,6.920058130733321e-310,0.000000000000000e+00,0.000000000000000e+00,
141,5.014430379744695e-02,1.000000000000000e-04,1.795195309459720e-04,3.672929450269445e-03,6.920058130733321e-310,6.920058130733321e-310,0.000000000000000e+00,0.000000000000000e+00,
142,5.100886075947534e-02,1.000000000000000e-04,1.721020724619088e-04,3.494040597832388e-03,6.920058130733321e-310,6.920058130733321e-310,0.000000000000000e+00,0.000000000000000e+00,
143,5.187341772150210e-02,1.000000000000000e-04,1.642987669942751e-04,3.313348869333411e-03,6.912296141725745e-310,6.912296141725745e-310,0.000000000000000e+00,0.000000000000000e+00,
144,5.273797468352830e-02,1.000000000000000e-04,1.561162767251226e-04,3.130905715702531e-03,6.912296141725745e-310,6.912296141725745e-310,0.000000000000000e+00,0.000000000000000e+00,
145,5.360253164555451e-02,1.000000000000000e-04,1.475620745885712e-04,2.946765112606046e-03,6.912296141725745e-310,6.912296141725745e-310,0.000000000000000e+00,0.000000000000000e+00,
146,5.446708860758072e-02,1.000000000000000e-04,1.386445465160507e-04,2.760984536143864e-03,6.912296141725745e-310,6.912296141725745e-310,0.000000000000000e+00,0.000000000000000e+00,
147,5.533164556960692e-02,1.000000000000000e-04,1.293733266932161e-04,2.573627070561773e-03,6.912296141725745e-310,6.912296141725745e-310,0.000000000000000e+00,0.000000000000000e+00,
148,5.619620253163312e-02,1.000000000000000e-04,1.197599155946535e-04,2.384764545663445e-03,6.912296141725745e-310,6.912296141725745e-310,0.000000000000000e+00,0.000000000000000e+00,
149,5.706075949365933e-02,1.000000000000000e-04,1.098184120897393e-04,2.194482169731950e-03,6.912296141725745e-310,6.912296141725745e-310,0.000000000000000e+00,0.000000000000000e+00,
150,5.792531645568553e-02,1.000000000000000e-04,9.956702991026183e-05,2.002887455850770e-03,6.912296141725745e-310,6.912296141725745e-310,0.000000000000000e+00,0.000000000000000e+00,
151,5.878987341771175e-02,1.000000000000000e-04,8.903063160513745e-05,1.810123868281386e-03,6.912296141725745e-310,6.912296141725745e-310,0.000000000000000e+00,0.000000000000000e+00,
152,5.965443037973795e-02,1.000000000000000e-04,7.824434532930656e-05,1.616392943070503e-03,6.912296141725745e-310,6.912296141725745e-310,0.000000000000000e+00,0.000000000000000e+00,
153,6.051898734176415e-02,1.000000000000000e-04,6.726030289128159e-05,1.421994087462466e-03,6.912296141725745e-310,6.912296141725745e-310,0.000000000000000e+00,0.000000000000000e+00,
154,6.138354430379036e-02,1.000000000000000e-04,5.615858804572649e-05,1.227390097099058e-03,6.912296141725745e-310,6.912296141725745e-310,0.000000000000000e+00,0.000000000000000e+00,
155,6.224810126581656e-02,1.000000000000000e-04,4.506525320368495e-05,1.033318524755895e-03,6.912296141725745e-310,6.912296141725745e-310,0.000000000000000e+00,0.000000000000000e+00,
156,6.311265822784276e-02,1.000000000000000e-04,3.418037372512343e-05,8.409789123196872e-04,6.912296141725745e-310,6.912296141725745e-310,0.000000000000000e+00,0.000000000000000e+00,
157,6.397721518986897e-02,1.000000000000000e-04,2.382105753838823e-05,6.523530957915622e-04,6.912296141725745e-310,6.912296141725745e-310,0.000000000000000e+00,0.000000000000000e+00,
158,6.484177215189517e-02,1.000000000000000e-04,1.447669004334242e-05,4.707456009685879e-04,6.912296141725745e-310,6.912296141725745e-310,0.000000000000000e+00,0.000000000000000e+00,
159,6.570632911392138e-02,1.000000000000000e-04,6.861932682410936e-06,3.017118279322292e-04,6.912296141725745e-310,6.912296141725745e-310,0.000000000000000e+00,0.000000000000000e+00,
160,6.657088607594758e-02,1.000000000000000e-04,1.857959140916626e-06,1.545973370066664e-04,6.912296141725745e-310,6.912296141725745e-310,0.000000000000000e+00,0.000000000000000e+00,
161,6.743544303797379e-02,1.000000000000000e-04,8.260281392620914e-08,4.528755067065227e-05,6.912296141725745e-310,6.912296141725745e-310,0.000000000000000e+00,0.000000000000000e+00,
162,6.743544303797798e-02,-1.000000000000000e-04,-1.895948454082862e-05,4.604669436385214e-05,6.912296141725745e-310,6.912296141725745e-310,0.000000000000000e+00,0.000000000000000e+00,
163,6.657088607595596e-02,-1.000000000000000e-04,-2.832529585934408e-05,1.568745783676467e-04,6.912296141725745e-310,6.912296141725745e-310,0.000000000000000e+00,0.000000000000000e+00,
164,6.570632911393393e-02,-1.000000000000000e-04,-2.979515468494200e-05,3.050850391866664e-04,6.912296141725745e-310,6.912296141725745e-310,0.000000000000000e+00,0.000000000000000e+00,
165,6.484177215191191e-02,-1.000000000000000e-04,-2.590394114105911e-05,4.748617124011814e-04,6.912296141725745e-310,6.912296141725745e-310,0.000000000000000e+00,0.000000000000000e+00,
166,6.397721518988989e-02,-1.000000000000000e-04,-1.866540163536588e-05,6.569161156264045e-04,6.912296141725745e-310,6.912296141725745e-310,0.000000000000000e+00,0.000000000000000e+00,
167,6.311265822786787e-02,-1.000000000000000e-04,-9.452566136079614e-06,8.457957954695495e-04,6.912296141725745e-310,6.912296141725745e-310,0.000000000000000e+00,0.000000000000000e+00,
168,6.224810126584584e-02,-1.000000000000000e-04,8.578145148874953e-07,1.038264900457349e-03,6.912296141725745e-310,6.912296141725745e-310,0.000000000000000e+00,0.000000000000000e+00,
169,6.138354430382382e-02,-1.000000000000000e-04,1.172095115332093e-05,1.232388886096931e-03,6.912296141725745e-310,6.912296141725745e-310,0.000000000000000e+00,0.000000000000000e+00,
170,6.051898734180180e-02,-1.000000000000000e-04,2.280237857338800e-05,1.426997527367727e-03,6.912296141725745e-310,6.912296141725745e-310,0.000000000000000e+00,0.000000000000000e+00,
171,5.965443037977977e-02,-1.000000000000000e-04,3.389650820896401e-05,1.621371326432707e-03,6.912296141725745e-310,6.912296141725745e-310,0.000000000000000e+00,0.000000000000000e+00,
172,5.878987341775775e-02,-1.000000000000000e-04,4.487593269920976e-05,1.815058444603370e-03,6.912296141725745e-310,6.912296141725745e-310,0.000000000000000e+00,0.000000000000000e+00,
173,5.792531645573573e-02,-1.000000000000000e-04,5.566028537095504e-05,2.007766077362818e-03,6.912296141725745e-310,6.912296141725745e-310,0.000000000000000e+00,0.000000000000000e+00,
174,5.706075949371370e-02,-1.000000000000000e-04,6.619760860476738e-05,2.199296680872194e-03,6.912296141725745e-310,6.912296141725745e-310,0.000000000000000e+00,0.000000000000000e+00,
175,5.619620253169168e-02,-1.000000000000000e-04,7.645289732995076e-05,2.389509205335035e-03,6.912296141725745e-310,6.912296141725745e-310,0.000000000000000e+00,0.000000000000000e+00,
176,5.533164556966966e-02,-1.000000000000000e-04,8.640156580789942e-05,2.578297682759979e-03,6.912296141725745e-310,6.912296141725745e-310,0.000000000000000e+00,0.000000000000000e+00,
177,5.446708860764764e-02,-1.000000000000000e-04,9.602565787288361e-05,2.765577862584638e-03,6.912296141725745e-310,6.912296141725745e-310,0.000000000000000e+00,0.000000000000000e+00,
178,5.360253164562562e-02,-1.000000000000000e-04,1.053112791335374e-04,2.951278528608196e-03,6.912296141725745e-310,6.912296141725745e-310,0.000000000000000e+00,0.000000000000000e+00,
179,5.273797468360359e-02,-1.000000000000000e-04,1.142472070540157e-04,3.135337027542526e-03,6.912296141725745e-310,6.912296141725745e-310,0.000000000000000e+00,0.000000000000000e+00,
180,5.187341772158157e-02,-1.000000000000000e-04,1.228240690725651e-04,3.317696176059445e-03,6.912296141725745e-310,6.912296141725745e-310,0.000000000000000e+00,0.000000000000000e+00,
181,5.100886075955900e-02,-1.000000000000000e-04,1.310337447921830e-04,3.498302211126396e-03,6.920058130733321e-310,6.920058130733321e-310,0.000000000000000e+00,0.000000000000000e+00,
182,5.014430379753478e-02,-1.000000000000000e-04,1.388690389174319e-04,3.677103868026193e-03,6.920058130733321e-310,6.920058130733321e-310,0.000000000000000e+00,0.000000000000000e+00,
183,4.927974683551056e-02,-1.000000000000000e-04,1.463235835597354e-04,3.854052062920564e-03,6.920058130733321e-310,6.920058130733321e-310,0.000000000000000e+00,0.000000000000000e+00,
184,4.841518987348634e-02,-1.000000000000000e-04,1.533917368086847e-04,4.029099321674342e-03,6.920058130733321e-310,6.920058130733321e-310,0.000000000000000e+00,0.000000000000000e+00,
185,4.755063291146212e-02,-1.000000000000000e-04,1.600684284775524e-04,4.202199366968174e-03,6.920058130733321e-310,6.920058130733321e-310,0.000000000000000e+00,0.000000000000000e+00,
186,4.668607594943790e-02,-1.000000000000000e-04,1.663491752916739e-04,4.373307191057580e-03,6.920058130733321e-310,6.920058130733321e-310,0.000000000000000e+00,0.000000000000000e+00,
187,4.582151898741368e-02,-1.000000000000000e-04,1.722299936405153e-04,4.542378778300543e-03,6.920058130733321e-310,6.920058130733321e-310,0.000000000000000e+00,0.000000000000000e+00,
188,4.495696202538947e-02,-1.000000000000000e-04,1.777074940041986e-04,4.709371507426037e-03,6.920058130733321e-310,6.920058130733321e-310,0.000000000000000e+00,0.000000000000000e+00,
189,4.409240506336524e-02,-1.000000000000000e-04,1.827788313759209e-04,4.874243557777672e-03,6.920058130733321e-310,6.920058130733321e-310,0.000000000000000e+00,0.000000000000000e+00,
190,4.322784810134103e-02,-1.000000000000000e-04,1.874415654251250e-04,5.036953625700251e-03,6.920058130733321e-310,6.920058130733321e-310,0.000000000000000e+00,0.000000000000000e+00,
191,4.236329113931681e-02,-1.000000000000000e-04,1.916936386706364e-04,5.197461333339192e-03,6.920058130733321e-310,6.920058130733321e-310,0.000000000000000e+00,0.000000000000000e+00,
192,4.149873417729259e-02,-1.000000000000000e-04,1.955336288123509e-04,5.355727966728168e-03,6.920058130733321e-310,6.920058130733321e-310,0.000000000000000e+00,0.000000000000000e+00,
193,4.063417721526837e-02,-1.000000000000000e-04,1.989606440958731e-04,5.511715481759660e-03,6.920058130733321e-310,6.920058130733321e-310,0.000000000000000e+00,0.000000000000000e+00,
194,3.976962025324415e-02,-1.000000000000000e-04,2.019741775645571e-04,5.665386166867084e-03,6.920058130733321e-310,6.920058130733321e-310,0.000000000000000e+00,0.000000000000000e+00,
195,3.890506329121993e-02,-1.000000000000000e-04,2.045740439425020e-04,5.816702550581081e-03,6.920058130733321e-310,6.920058130733321e-310,0.000000000000000e+00,0.000000000000000e+00,
196,3.804050632919571e-02,-1.000000000000000e-04,2.067604383772539e-04,5.965627849154618e-03,6.920058130733321e-310,6.920058130733321e-310,0.000000000000000e+00,0.000000000000000e+00,
197,3.717594936717150e-02,-1.000000000000000e-04,2.085339970815901e-04,6.112126100683241e-03,6.920058130733321e-310,6.920058130733321e-310,0.000000000000000e+00,0.000000000000000e+00,
198,3.631139240514728e-02,-1.000000000000000e-04,2.098958372298990e-04,6.256161895686213e-03,6.920058130733321e-310,6.920058130733321e-310,0.000000000000000e+00,0.000000000000000e+00,
199,3.544683544312306e-02,-1.000000000000000e-04,2.108473296321702e-04,6.397699727102644e-03,6.920058130733321e-310,6.920058130733321e-310,0.000000000000000e+00,0.000000000000000e+00,
200,3.458227848109884e-02,-1.000000000000000e-04,2.113902298015872e-04,6.536704996515674e-03,6.920058130733321e-310,6.920058130733321e-310,0.000000000000000e+00,0.000000000000000e+00,
201,3.371772151907242e-02,-1.000000000000000e-04,2.115267334090913e-04,6.673143721498231e-03,6.899819563497903e-310,6.899819563497903e-310,0.000000000000000e+00,0.000000000000000e+00,
202,3.285316455704381e-02,-1.000000000000000e-04,2.112594105561456e-04,6.806982533961838e-03,6.899819563497903e-310,6.899819563497903e-310,0.000000000000000e+00,0.000000000000000e+00,
203,3.198860759501521e-02,-1.000000000000000e-04,2.105912656218738e-04,6.938188697200239e-03,6.899819563497903e-310,6.899819563497903e-310,0.000000000000000e+00,0.000000000000000e+00,
204,3.112405063298660e-02,-1.000000000000000e-04,2.095256609735948e-04,7.066729473384216e-03,6.899819563497903e-310,6.899819563497903e-310,0.000000000000000e+00,0.000000000000000e+00,
205,3.025949367095799e-02,-1.000000000000000e-04,2.080662183337106e-04,7.192571924099935e-03,6.899819563497903e-310,6.899819563497903e-310,0.000000000000000e+00,0.000000000000000e+00,
206,2.939493670892938e-02,-1.000000000000000e-04,2.062168391115478e-04,7.315683097719792e-03,6.899819563497903e-310,6.899819563497903e-310,0.000000000000000e+00,0.000000000000000e+00,
207,2.853037974690077e-02,-1.000000000000000e-04,2.039816865645578e-04,7.436030317339833e-03,6.899819563497903e-310,6.899819563497903e-310,0.000000000000000e+00,0.000000000000000e+00,
208,2.766582278487216e-02,-1.000000000000000e-04,2.013653701223249e-04,7.553581842409651e-03,6.899819563497903e-310,6.899819563497903e-310,0.000000000000000e+00,0.000000000000000e+00,
209,2.680126582284355e-02,-1.000000000000000e-04,1.983728921932262e-04,7.668306014304351e-03,6.899819563497903e-310,6.899819563497903e-310,0.000000000000000e+00,0.000000000000000e+00,
210,2.593670886081494e-02,-1.000000000000000e-04,1.950095665078546e-04,7.780171094775246e-03,6.899819563497903e-310,6.899819563497903e-310,0.000000000000000e+00,0.000000000000000e+00,
211,2.507215189878632e-02,-1.000000000000000e-04,1.912809567357018e-04,7.889145098061903e-03,6.899819563497903e-310,6.899819563497903e-310,0.000000000000000e+00,0.000000000000000e+00,
212,2.420759493675772e-02,-1.000000000000000e-04,1.871929526123443e-04,7.995196202581902e-03,6.899819563497903e-310,6.899819563497903e-310,0.000000000000000e+00,0.000000000000000e+00,
213,2.334303797472911e-02,-1.000000000000000e-04,1.827517124535239e-04,8.098292553439586e-03,6.899819563497903e-310,6.899819563497903e-310,0.000000000000000e+00,0.000000000000000e+00,
214,2.247848101270049e-02,-1.000000000000000e-04,1.779637612577481e-04,8.198403009031277e-03,6.899819563497903e-310,6.899819563497903e-310,0.000000000000000e+00,0.000000000000000e+00,
215,2.161392405067188e-02,-1.000000000000000e-04,1.728360067185635e-04,8.295496766865390e-03,6.899819563497903e-310,6.899819563497903e-310,0.000000000000000e+00,0.000000000000000e+00,
216,2.074936708864328e-02,-1.000000000000000e-04,1.673757513298397e-04,8.389543326791708e-03,6.899819563497903e-310,6.899819563497903e-310,0.000000000000000e+00,0.000000000000000e+00,
217,1.988481012661467e-02,-1.000000000000000e-04,1.615905732942174e-04,8.480511914683186e-03,6.899819563497903e-310,6.899819563497903e-310,0.000000000000000e+00,0.000000000000000e+00,
218,1.902025316458605e-02,-1.000000000000000e-04,1.554883720325642e-04,8.568372080781771e-03,6.899819563497903e-310,6.899819563497903e-310,0.000000000000000e+00,0.000000000000000e+00,
219,1.815569620255744e-02,-1.000000000000000e-04,1.490773694650569e-04,8.653093449028837e-03,6.899819563497903e-310,6.899819563497903e-310,0.000000000000000e+00,0.000000000000000e+00,
220,1.729113924052884e-02,-1.000000000000000e-04,1.423661451857310e-04,8.734646083924838e-03,6.899819563497903e-310,6.899819563497903e-310,0.000000000000000e+00,0.000000000000000e+00,
221,1.642658227850187e-02,-1.000000000000000e-04,1.353636078909065e-04,8.813000164588245e-03,6.926090691228515e-310,6.926090691228515e-310,0.000000000000000e+00,0.000000000000000e+00,
222,1.556202531647546e-02,-1.000000000000000e-04,1.280789948054052e-04,8.888126331368731e-03,6.926090691228515e-310,6.926090691228515e-310,0.000000000000000e+00,0.000000000000000e+00,
223,1.469746835444904e-02,-1.000000000000000e-04,1.205218742916748e-04,8.959995685848116e-03,6.926090691228515e-310,6.926090691228515e-310,0.000000000000000e+00,0.000000000000000e+00,
224,1.383291139242263e-02,-1.000000000000000e-04,1.127021879428178e-04,9.028580090101056e-03,6.926090691228515e-310,6.926090691228515e-310,0.000000000000000e+00,0.000000000000000e+00,
225,1.296835443039621e-02,-1.000000000000000e-04,1.046302286020971e-04,9.093851913243849e-03,6.926090691228515e-310,6.926090691228515e-310,0.000000000000000e+00,0.000000000000000e+00,
226,1.210379746836981e-02,-1.000000000000000e-04,9.631665936391841e-05,9.155784244720258e-03,6.926090691228515e-310,6.926090691228515e-310,0.000000000000000e+00,0.000000000000000e+00,
227,1.123924050634338e-02,-1.000000000000000e-04,8.777247016860082e-05,9.214350528528073e-03,6.926090691228515e-310,6.926090691228515e-310,0.000000000000000e+00,0.000000000000000e+00,
228,1.037468354431697e-02,-1.000000000000000e-04,7.900899455720998e-05,9.269524814017320e-03,6.926090691228515e-310,6.926090691228515e-310,0.000000000000000e+00,0.000000000000000e+00,
229,9.510126582290550e-03,-1.000000000000000e-04,7.003790499666041e-05,9.321281310162542e-03,6.926090691228515e-310,6.926090691228515e-310,0.000000000000000e+00,0.000000000000000e+00,
230,8.645569620264144e-03,-1.000000000000000e-04,6.087116634002900e-05,9.369594504946411e-03,6.926090691228515e-310,6.926090691228515e-310,0.000000000000000e+00,0.000000000000000e+00,
231,7.781012658237732e-03,-1.000000000000000e-04,5.152105506231184e-05,9.414439186343529e-03,6.926090691228515e-310,6.926090691228515e-310,0.000000000000000e+00,0.000000000000000e+00,
232,6.916455696211313e-03,-1.000000000000000e-04,4.200009902110104e-05,9.455790556469853e-03,6.926090691228515e-310,6.926090691228515e-310,0.000000000000000e+00,0.000000000000000e+00,
233,6.051898734184900e-03,-1.000000000000000e-04,3.232112410142354e-05,9.493624808414803e-03,6.926090691228515e-310,6.926090691228515e-310,0.000000000000000e+00,0.000000000000000e+00,
234,5.187341772158474e-03,-1.000000000000000e-04,2.249727026713214e-05,9.527919057632809e-03,6.926090691228515e-310,6.926090691228515e-310,0.000000000000000e+00,0.000000000000000e+00,
235,4.322784810132069e-03,-1.000000000000000e-04,1.254199819860677e-05,9.558651476815859e-03,6.926090691228515e-310,6.926090691228515e-310,0.000000000000000e+00,0.000000000000000e+00,
236,3.458227848105663e-03,-1.000000000000000e-04,2.469060257875853e-06,9.585801009841820e-03,6.926090691228515e-310,6.926090691228515e-310,0.000000000000000e+00,0.000000000000000e+00,
237,2.593670886079244e-03,-1.000000000000000e-04,-7.707552431250226e-06,9.609347623079745e-03,6.926090691228515e-310,6.926090691228515e-310,0.000000000000000e+00,0.000000000000000e+00,
238,1.729113924052825e-03,-1.000000000000000e-04,-1.797354504811139e-05,9.629272391303052e-03,6.926090691228515e-310,6.926090691228515e-310,0.000000000000000e+00,0.000000000000000e+00,
239,8.645569620264193e-04,-1.000000000000000e-04,-2.831434957988969e-05,9.645557090886056e-03,6.926090691228515e-310,6.926090691228515e-310,0.000000000000000e+00,0.000000000000000e+00,
240,-8.645569620226498e-04,-1.000000000000000e-04,-4.916091688617912e-05,9.667136769986283e-03,6.931968926523226e-310,6.931968926523226e-310,0.000000000000000e+00,0.000000000000000e+00,
241,-1.729113924045300e-03,-1.000000000000000e-04,-5.963636139349968e-05,9.672398246192022e-03,6.931968926523226e-310,6.931968926523226e-310,0.000000000000000e+00,0.000000000000000e+00,
242,-2.593670886067950e-03,-1.000000000000000e-04,-7.012605260289478e-05,9.673952711817046e-03,6.931968926523226e-310,6.931968926523226e-310,0.000000000000000e+00,0.000000000000000e+00,
243,-3.458227848090599e-03,-1.000000000000000e-04,-8.061437023532697e-05,9.671785098393922e-03,6.931968926523226e-310,6.931968926523226e-310,0.000000000000000e+00,0.000000000000000e+00,
244,-4.322784810113249e-03,-1.000000000000000e-04,-9.108550301189066e-05,9.665881183757587e-03,6.931968926523226e-310,6.931968926523226e-310,0.000000000000000e+00,0.000000000000000e+00,
245,-5.187341772135899e-03,-1.000000000000000e-04,-1.015234909222375e-04,9.656227657696432e-03,6.931968926523226e-310,6.931968926523226e-310,0.000000000000000e+00,0.000000000000000e+00,
246,-6.051898734158549e-03,-1.000000000000000e-04,-1.119122357653131e-04,9.642812318800258e-03,6.931968926523226e-310,6.931968926523226e-310,0.000000000000000e+00,0.000000000000000e+00,
247,-6.916455696181199e-03,-1.000000000000000e-04,-1.222355110232188e-04,9.625624141581413e-03,6.931968926523226e-310,6.931968926523226e-310,0.000000000000000e+00,0.000000000000000e+00,
248,-7.781012658203849e-03,-1.000000000000000e-04,-1.324770094515111e-04,9.604653448744664e-03,6.931968926523226e-310,6.931968926523226e-310,0.000000000000000e+00,0.000000000000000e+00,
249,-8.645569620226497e-03,-1.000000000000000e-04,-1.426203449008320e-04,9.579892123620353e-03,6.931968926523226e-310,6.931968926523226e-310,0.000000000000000e+00,0.000000000000000e+00,
250,-9.510126582249149e-03,-1.000000000000000e-04,-1.526490410210540e-04,9.551333488218471e-03,6.931968926523226e-310,6.931968926523226e-310,0.000000000000000e+00,0.000000000000000e+00,
251,-1.037468354427180e-02,-1.000000000000000e-04,-1.625465434790877e-04,9.518972104851708e-03,6.931968926523226e-310,6.931968926523226e-310,0.000000000000000e+00,0.000000000000000e+00,
252,-1.123924050629445e-02,-1.000000000000000e-04,-1.722962087888013e-04,9.482803501434090e-03,6.931968926523226e-310,6.931968926523226e-310,0.000000000000000e+00,0.000000000000000e+00,
253,-1.210379746831710e-02,-1.000000000000000e-04,-1.818813594613731e-04,9.442823888402736e-03,6.931968926523226e-310,6.931968926523226e-310,0.000000000000000e+00,0.000000000000000e+00,
254,-1.296835443033975e-02,-1.000000000000000e-04,-1.912853815870625e-04,9.399030517420871e-03,6.931968926523226e-310,6.931968926523226e-310,0.000000000000000e+00,0.000000000000000e+00,
255,-1.383291139236240e-02,-1.000000000000000e-04,-2.004917027245287e-04,9.351422087423039e-03,6.931968926523226e-310,6.931968926523226e-310,0.000000000000000e+00,0.000000000000000e+00,
256,-1.469746835438505e-02,-1.000000000000000e-04,-2.094837944813732e-04,9.299998586434030e-03,6.931968926523226e-310,6.931968926523226e-310,0.000000000000000e+00,0.000000000000000e+00,
257,-1.556202531640770e-02,-1.000000000000000e-04,-2.182452046901766e-04,9.244761446874965e-03,6.931968926523226e-310,6.931968926523226e-310,0.000000000000000e+00,0.000000000000000e+00,
258,-1.642658227843035e-02,-1.000000000000000e-04,-2.267595769665687e-04,9.185713363387806e-03,6.931968926523226e-310,6.931968926523226e-310,0.000000000000000e+00,0.000000000000000e+00,
259,-1.729113924045334e-02,-1.000000000000000e-04,-2.350107418965158e-04,9.122858620197485e-03,6.920336216895902e-310,6.920336216895902e-310,0.000000000000000e+00,0.000000000000000e+00,
260,-1.815569620247735e-02,-1.000000000000000e-04,-2.429827101305520e-04,9.056203294482895e-03,6.920336216895902e-310,6.920336216895902e-310,0.000000000000000e+00,0.000000000000000e+00,
261,-1.902025316450135e-02,-1.000000000000000e-04,-2.506596476075989e-04,8.985755089767298e-03,6.920336216895902e-310,6.920336216895902e-310,0.000000000000000e+00,0.000000000000000e+00,
262,-1.988481012652537e-02,-1.000000000000000e-04,-2.580259170338476e-04,8.911523080240909e-03,6.920336216895902e-310,6.920336216895902e-310,0.000000000000000e+00,0.000000000000000e+00,
263,-2.074936708854937e-02,-1.000000000000000e-04,-2.650660793262186e-04,8.833517771928673e-03,6.920336216895902e-310,6.920336216895902e-310,0.000000000000000e+00,0.000000000000000e+00,
264,-2.161392405057339e-02,-1.000000000000000e-04,-2.717649091217088e-04,8.751750703529864e-03,6.920336216895902e-310,6.920336216895902e-310,0.000000000000000e+00,0.000000000000000e+00,
265,-2.247848101259740e-02,-1.000000000000000e-04,-2.781074599931037e-04,8.666234787576525e-03,6.920336216895902e-310,6.920336216895902e-310,0.000000000000000e+00,0.000000000000000e+00,
266,-2.334303797462140e-02,-1.000000000000000e-04,-2.840791142377923e-04,8.576984234825225e-03,6.920336216895902e-310,6.920336216895902e-310,0.000000000000000e+00,0.000000000000000e+00,
267,-2.420759493664541e-02,-1.000000000000000e-04,-2.896656692400685e-04,8.484015255941054e-03,6.920336216895902e-310,6.920336216895902e-310,0.000000000000000e+00,0.000000000000000e+00,
268,-2.507215189866942e-02,-1.000000000000000e-04,-2.948532576189863e-04,8.387345733037139e-03,6.920336216895902e-310,6.920336216895902e-310,0.000000000000000e+00,0.000000000000000e+00,
269,-2.593670886069343e-02,-1.000000000000000e-04,-2.996283004744784e-04,8.286994954738286e-03,6.920336216895902e-310,6.920336216895902e-310,0.000000000000000e+00,0.000000000000000e+00,
270,-2.680126582271744e-02,-1.000000000000000e-04,-3.039775198195228e-04,8.182982878870338e-03,6.920336216895902e-310,6.920336216895902e-310,0.000000000000000e+00,0.000000000000000e+00,
271,-2.766582278474145e-02,-1.000000000000000e-04,-3.078880792782703e-04,8.075330765623888e-03,6.920336216895902e-310,6.920336216895902e-310,0.000000000000000e+00,0.000000000000000e+00,
272,-2.853037974676546e-02,-1.000000000000000e-04,-3.113475832225351e-04,7.964061137455136e-03,6.920336216895902e-310,6.920336216895902e-310,0.000000000000000e+00,0.000000000000000e+00,
273,-2.939493670878947e-02,-1.000000000000000e-04,-3.143442119990622e-04,7.849198393507326e-03,6.920336216895902e-310,6.920336216895902e-310,0.000000000000000e+00,0.000000000000000e+00,
274,-3.025949367081348e-02,-1.000000000000000e-04,-3.168667377462339e-04,7.730768961250180e-03,6.920336216895902e-310,6.920336216895902e-310,0.000000000000000e+00,0.000000000000000e+00,
275,-3.112405063283749e-02,-1.000000000000000e-04,-3.189044376958928e-04,7.608801378551911e-03,6.920336216895902e-310,6.920336216895902e-310,0.000000000000000e+00,0.000000000000000e+00,
276,-3.198860759486150e-02,-1.000000000000000e-04,-3.204469700845632e-04,7.483325084591579e-03,6.920336216895902e-310,6.920336216895902e-310,0.000000000000000e+00,0.000000000000000e+00,
277,-3.285316455688551e-02,-1.000000000000000e-04,-3.214845437915593e-04,7.354370632354748e-03,6.920336216895902e-310,6.920336216895902e-310,0.000000000000000e+00,0.000000000000000e+00,
278,-3.371772151890952e-02,-1.000000000000000e-04,-3.220078465968586e-04,7.221969654060918e-03,6.920336216895902e-310,6.920336216895902e-310,0.000000000000000e+00,0.000000000000000e+00,
279,-3.458227848093572e-02,-1.000000000000000e-04,-3.220080961866645e-04,7.086154656221173e-03,6.947728935124893e-310,6.947728935124893e-310,0.000000000000000e+00,0.000000000000000e+00,
280,-3.544683544296412e-02,-1.000000000000000e-04,-3.214772153198481e-04,6.946959693848784e-03,6.947728935124893e-310,6.947728935124893e-310,0.000000000000000e+00,0.000000000000000e+00,
281,-3.631139240499252e-02,-1.000000000000000e-04,-3.204077869815970e-04,6.804420671368787e-03,6.947728935124893e-310,6.947728935124893e-310,0.000000000000000e+00,0.000000000000000e+00,
282,-3.717594936702093e-02,-1.000000000000000e-04,-3.187930055298632e-04,6.658574855404118e-03,6.947728935124893e-310,6.947728935124893e-310,0.000000000000000e+00,0.000000000000000e+00,
283,-3.804050632904932e-02,-1.000000000000000e-04,-3.166267551207681e-04,6.509461072408278e-03,6.947728935124893e-310,6.947728935124893e-310,0.000000000000000e+00,0.000000000000000e+00,
284,-3.890506329107773e-02,-1.000000000000000e-04,-3.139036431069579e-04,6.357119632624082e-03,6.947728935124893e-310,6.947728935124893e-310,0.000000000000000e+00,0.000000000000000e+00,
285,-3.976962025310612e-02,-1.000000000000000e-04,-3.106190051740639e-04,6.201592574997376e-03,6.947728935124893e-310,6.947728935124893e-310,0.000000000000000e+00,0.000000000000000e+00,
286,-4.063417721513453e-02,-1.000000000000000e-04,-3.067688014005375e-04,6.042923079870258e-03,6.947728935124893e-310,6.947728935124893e-310,0.000000000000000e+00,0.000000000000000e+00,
287,-4.149873417716293e-02,-1.000000000000000e-04,-3.023496970876327e-04,5.881155664377491e-03,6.947728935124893e-310,6.947728935124893e-310,0.000000000000000e+00,0.000000000000000e+00,
288,-4.236329113919133e-02,-1.000000000000000e-04,-2.973590000160588e-04,5.716335772329070e-03,6.947728935124893e-310,6.947728935124893e-310,0.000000000000000e+00,0.000000000000000e+00,
289,-4.322784810121974e-02,-1.000000000000000e-04,-2.917947461216917e-04,5.548510065116084e-03,6.947728935124893e-310,6.947728935124893e-310,0.000000000000000e+00,0.000000000000000e+00,
290,-4.409240506324814e-02,-1.000000000000000e-04,-2.856556784879840e-04,5.377726229010600e-03,6.947728935124893e-310,6.947728935124893e-310,0.000000000000000e+00,0.000000000000000e+00,
291,-4.495696202527653e-02,-1.000000000000000e-04,-2.789411750574479e-04,5.204033130282089e-03,6.947728935124893e-310,6.947728935124893e-310,0.000000000000000e+00,0.000000000000000e+00,
292,-4.582151898730494e-02,-1.000000000000000e-04,-2.716510266747571e-04,5.027479541623340e-03,6.947728935124893e-310,6.947728935124893e-310,0.000000000000000e+00,0.000000000000000e+00,
293,-4.668607594933333e-02,-1.000000000000000e-04,-2.637857095814892e-04,4.848114792127260e-03,6.947728935124893e-310,6.947728935124893e-310,0.000000000000000e+00,0.000000000000000e+00,
294,-4.755063291136175e-02,-1.000000000000000e-04,-2.553463571177071e-04,4.665988962378598e-03,6.947728935124893e-310,6.947728935124893e-310,0.000000000000000e+00,0.000000000000000e+00,
295,-4.841518987339014e-02,-1.000000000000000e-04,-2.463346317662372e-04,4.481152715896469e-03,6.947728935124893e-310,6.947728935124893e-310,0.000000000000000e+00,0.000000000000000e+00,
296,-4.927974683541853e-02,-1.000000000000000e-04,-2.367524956952717e-04,4.293656351957329e-03,6.947728935124893e-310,6.947728935124893e-310,0.000000000000000e+00,0.000000000000000e+00,
297,-5.014430379744695e-02,-1.000000000000000e-04,-2.266022662235413e-04,4.103549557378832e-03,6.947728935124893e-310,6.947728935124893e-310,0.000000000000000e+00,0.000000000000000e+00,
298,-5.100886075947534e-02,-1.000000000000000e-04,-2.158865785365935e-04,3.910881596210830e-03,6.947728935124893e-310,6.947728935124893e-310,0.000000000000000e+00,0.000000000000000e+00,
299,-5.187341772150210e-02,-1.000000000000000e-04,-2.046081879399761e-04,3.715700608888812e-03,6.901727038129294e-310,6.901727038129294e-310,0.000000000000000e+00,0.000000000000000e+00,
300,-5.273797468352830e-02,-1.000000000000000e-04,-1.927700384594880e-04,3.518053587788325e-03,6.901727038129294e-310,6.901727038129294e-310,0.000000000000000e+00,0.000000000000000e+00,
301,-5.360253164555451e-02,-1.000000000000000e-04,-1.803752878753997e-04,3.317986600312369e-03,6.901727038129294e-310,6.901727038129294e-310,0.000000000000000e+00,0.000000000000000e+00,
302,-5.446708860758072e-02,-1.000000000000000e-04,-1.674272839682189e-04,3.115544779265646e-03,6.901727038129294e-310,6.901727038129294e-310,0.000000000000000e+00,0.000000000000000e+00,
303,-5.533164556960692e-02,-1.000000000000000e-04,-1.539298708301030e-04,2.910773047634280e-03,6.901727038129294e-310,6.901727038129294e-310,0.000000000000000e+00,0.000000000000000e+00,
304,-5.619620253163312e-02,-1.000000000000000e-04,-1.398881360319172e-04,2.703718469723623e-03,6.901727038129294e-310,6.901727038129294e-310,0.000000000000000e+00,0.000000000000000e+00,
305,-5.706075949365933e-02,-1.000000000000000e-04,-1.253096239286704e-04,2.494433901072481e-03,6.901727038129294e-310,6.901727038129294e-310,0.000000000000000e+00,0.000000000000000e+00,
306,-5.792531645568553e-02,-1.000000000000000e-04,-1.102068302387199e-04,2.282985521833055e-03,6.901727038129294e-310,6.901727038129294e-310,0.000000000000000e+00,0.000000000000000e+00,
307,-5.878987341771175e-02,-1.000000000000000e-04,-9.460164599530758e-05,2.069466096896773e-03,6.901727038129294e-310,6.901727038129294e-310,0.000000000000000e+00,0.000000000000000e+00,
308,-5.965443037973795e-02,-1.000000000000000e-04,-7.853332070427510e-05,1.854018898728330e-03,6.901727038129294e-310,6.901727038129294e-310,0.000000000000000e+00,0.000000000000000e+00,
309,-6.051898734176415e-02,-1.000000000000000e-04,-6.207252253089838e-05,1.636878969385430e-03,6.901727038129294e-310,6.901727038129294e-310,0.000000000000000e+00,0.000000000000000e+00,
310,-6.138354430379036e-02,-1.000000000000000e-04,-4.534597499408607e-05,1.418447362511052e-03,6.901727038129294e-310,6.901727038129294e-310,0.000000000000000e+00,0.000000000000000e+00,
311,-6.224810126581656e-02,-1.000000000000000e-04,-2.857767848268457e-05,1.199415938471105e-03,6.901727038129294e-310,6.901727038129294e-310,0.000000000000000e+00,0.000000000000000e+00,
312,-6.311265822784276e-02,-1.000000000000000e-04,-1.215911455134662e-05,9.809848946552130e-04,6.901727038129294e-310,6.901727038129294e-310,0.000000000000000e+00,0.000000000000000e+00,
313,-6.397721518986897e-02,-1.000000000000000e-04,3.235753337797714e-06,7.652394480686326e-04,6.901727038129294e-310,6.901727038129294e-310,0.000000000000000e+00,0.000000000000000e+00,
314,-6.484177215189517e-02,-1.000000000000000e-04,1.647485528185552e-05,5.558040282813022e-04,6.901727038129294e-310,6.901727038129294e-310,0.000000000000000e+00,0.000000000000000e+00,
315,-6.570632911392138e-02,-1.000000000000000e-04,2.572719734571381e-05,3.589577247218264e-04,6.901727038129294e-310,6.901727038129294e-310,0.000000000000000e+00,0.000000000000000e+00,
316,-6.657088607594758e-02,-1.000000000000000e-04,2.823521518286305e-05,1.856393895729745e-04,6.901727038129294e-310,6.901727038129294e-310,0.000000000000000e+00,0.000000000000000e+00,
317,-6.743544303797379e-02,-1.000000000000000e-04,2.045340720493510e-05,5.482731572998905e-05,6.901727038129294e-310,6.901727038129294e-310,0.000000000000000e+00,0.000000000000000e+00,
318,-6.830000000000000e-02,-1.694201419780161e-16,0.000000000000000e+00,0.000000000000000e+00,6.901727038129294e-310,6.901727038129294e-310,0.000000000000000e+00,0.000000000000000e+00,
319,0.000000000000000e+00,1.694201419780161e-16,-3.748181506064684e-05,9.658176538353009e-03,6.931968926523226e-310,6.931968926523226e-310,0.000000000000000e+00,0.000000000000000e+00,
320,6.830000000000000e-02,1.694201419780161e-16,0.000000000000000e+00,0.000000000000000e+00,6.912296141725745e-310,6.912296141725745e-310,0.000000000000000e+00,0.000000000000000e+00,
321,-6.743544303797591e-02,-1.651307671331204e-16,9.180492254690786e-06,5.429377183173838e-05,6.901727038129294e-310,6.901727038129294e-310,0.000000000000000e+00,0.000000000000000e+00,
322,-6.657088607595177e-02,-1.608481685518026e-16,1.051696511921617e-05,1.840648376965871e-04,6.901727038129294e-310,6.901727038129294e-310,0.000000000000000e+00,0.000000000000000e+00,
323,-6.570632911392765e-02,-1.565655699704849e-16,4.399536724619784e-06,3.566659660655718e-04,6.901727038129294e-310,6.901727038129294e-310,0.000000000000000e+00,0.000000000000000e+00,
324,-6.484177215190354e-02,-1.522626425984330e-16,-6.833380013393309e-06,5.530507818625294e-04,6.901727038129294e-310,6.901727038129294e-310,0.000000000000000e+00,0.000000000000000e+00,
325,-6.397721518987942e-02,-1.479732677535373e-16,-2.110727235447211e-05,7.622319061497113e-04,6.901727038129294e-310,6.901727038129294e-310,0.000000000000000e+00,0.000000000000000e+00,
326,-6.311265822785532e-02,-1.436838929086415e-16,-3.699143896602609e-05,9.778526207858875e-04,6.901727038129294e-310,6.901727038129294e-310,0.000000000000000e+00,0.000000000000000e+00,
327,-6.224810126583120e-02,-1.393945180637457e-16,-5.358370598288057e-05,1.196238930982605e-03,6.901727038129294e-310,6.901727038129294e-310,0.000000000000000e+00,0.000000000000000e+00,
328,-6.138354430380710e-02,-1.351119194824280e-16,-7.034412282491597e-05,1.415272350126358e-03,6.901727038129294e-310,6.901727038129294e-310,0.000000000000000e+00,0.000000000000000e+00,
329,-6.051898734178297e-02,-1.308225446375322e-16,-8.695813139982337e-05,1.633732946104750e-03,6.901727038129294e-310,6.901727038129294e-310,0.000000000000000e+00,0.000000000000000e+00,
330,-5.965443037975886e-02,-1.265263935290584e-16,-1.032459233873520e-04,1.850917162203395e-03,6.901727038129294e-310,6.901727038129294e-310,0.000000000000000e+00,0.000000000000000e+00,
331,-5.878987341773474e-02,-1.222370186841626e-16,-1.191060637843890e-04,2.066417217747901e-03,6.901727038129294e-310,6.901727038129294e-310,0.000000000000000e+00,0.000000000000000e+00,
332,-5.792531645571064e-02,-1.179544201028448e-16,-1.344821415281681e-04,2.279994252262726e-03,6.901727038129294e-310,6.901727038129294e-310,0.000000000000000e+00,0.000000000000000e+00,
333,-5.706075949368652e-02,-1.136650452579491e-16,-1.493427366076885e-04,2.491502916650815e-03,6.901727038129294e-310,6.901727038129294e-310,0.000000000000000e+00,0.000000000000000e+00,
334,-5.619620253166239e-02,-1.093756704130533e-16,-1.636702022886379e-04,2.700849290876207e-03,6.901727038129294e-310,6.901727038129294e-310,0.000000000000000e+00,0.000000000000000e+00,
335,-5.533164556963828e-02,-1.050930718317356e-16,-1.774542266273389e-04,2.907966604470891e-03,6.901727038129294e-310,6.901727038129294e-310,0.000000000000000e+00,0.000000000000000e+00,
336,-5.446708860761418e-02,-1.007969207232617e-16,-1.906882948061527e-04,3.112801690632221e-03,6.901727038129294e-310,6.901727038129294e-310,0.000000000000000e+00,0.000000000000000e+00,
337,-5.360253164559006e-02,-9.650076961478793e-17,-2.033677438268025e-04,3.315307349580607e-03,6.901727038129294e-310,6.901727038129294e-310,0.000000000000000e+00,0.000000000000000e+00,
338,-5.273797468356593e-02,-9.221139476989215e-17,-2.154888207157957e-04,3.515438587563817e-03,6.901727038129294e-310,6.901727038129294e-310,0.000000000000000e+00,0.000000000000000e+00,
339,-5.187341772154182e-02,-8.793557245215244e-17,-2.270480886820341e-04,3.713150243557488e-03,6.901727038129294e-310,6.901727038129294e-310,0.000000000000000e+00,0.000000000000000e+00,
340,-5.100886075951717e-02,-8.364619760725667e-17,-2.380422836089867e-04,3.908396236076118e-03,6.947728935124893e-310,6.947728935124893e-310,0.000000000000000e+00,0.000000000000000e+00,
341,-5.014430379749086e-02,-7.935004649878286e-17,-2.484683455527291e-04,4.101129550098657e-03,6.947728935124893e-310,6.947728935124893e-310,0.000000000000000e+00,0.000000000000000e+00,
342,-4.927974683546454e-02,-7.505389539030904e-17,-2.583233746787288e-04,4.291302025397388e-03,6.947728935124893e-310,6.947728935124893e-310,0.000000000000000e+00,0.000000000000000e+00,
343,-4.841518987343824e-02,-7.076452054541327e-17,-2.676046495327275e-04,4.478864368220926e-03,6.947728935124893e-310,6.947728935124893e-310,0.000000000000000e+00,0.000000000000000e+00,
344,-4.755063291141194e-02,-6.648192196409553e-17,-2.763098018967255e-04,4.663766847575246e-03,6.947728935124893e-310,6.947728935124893e-310,0.000000000000000e+00,0.000000000000000e+00,
345,-4.668607594938563e-02,-6.219254711919975e-17,-2.844367957738855e-04,4.845959127775730e-03,6.947728935124893e-310,6.947728935124893e-310,0.000000000000000e+00,0.000000000000000e+00,
346,-4.582151898735930e-02,-5.790317227430397e-17,-2.919839797886842e-04,5.025390483225756e-03,6.947728935124893e-310,6.947728935124893e-310,0.000000000000000e+00,0.000000000000000e+00,
347,-4.495696202533300e-02,-5.361379742940819e-17,-2.989503083897664e-04,5.202010761234416e-03,6.947728935124893e-310,6.947728935124893e-310,0.000000000000000e+00,0.000000000000000e+00,
348,-4.409240506330669e-02,-4.932442258451242e-17,-3.053353940050358e-04,5.375770562416837e-03,6.947728935124893e-310,6.947728935124893e-310,0.000000000000000e+00,0.000000000000000e+00,
349,-4.322784810128039e-02,-4.503504773961664e-17,-3.111394505656150e-04,5.546621048704745e-03,6.947728935124893e-310,6.947728935124893e-310,0.000000000000000e+00,0.000000000000000e+00,
350,-4.236329113925408e-02,-4.073889663114283e-17,-3.163631559444845e-04,5.714513292181632e-03,6.947728935124893e-310,6.947728935124893e-310,0.000000000000000e+00,0.000000000000000e+00,
351,-4.149873417722776e-02,-3.645968618161410e-17,-3.210079066665243e-04,5.879399517822412e-03,6.947728935124893e-310,6.947728935124893e-310,0.000000000000000e+00,0.000000000000000e+00,
352,-4.063417721520145e-02,-3.217031133671833e-17,-3.250757953586667e-04,6.041232988813828e-03,6.947728935124893e-310,6.947728935124893e-310,0.000000000000000e+00,0.000000000000000e+00,
353,-3.976962025317514e-02,-2.788093649182255e-17,-3.285696331443829e-04,6.199968179000660e-03,6.947728935124893e-310,6.947728935124893e-310,0.000000000000000e+00,0.000000000000000e+00,
354,-3.890506329114883e-02,-2.358139725155972e-17,-3.314928847632318e-04,6.355560496866483e-03,6.947728935124893e-310,6.947728935124893e-310,0.000000000000000e+00,0.000000000000000e+00,
355,-3.804050632912252e-02,-1.929541053845296e-17,-3.338497280184369e-04,6.507966682740209e-03,6.947728935124893e-310,6.947728935124893e-310,0.000000000000000e+00,0.000000000000000e+00,
356,-3.717594936709621e-02,-1.500603569355718e-17,-3.356449898149870e-04,6.657144610519173e-03,6.947728935124893e-310,6.947728935124893e-310,0.000000000000000e+00,0.000000000000000e+00,
357,-3.631139240506990e-02,-1.072004898045043e-17,-3.368842552295041e-04,6.803053894024942e-03,6.947728935124893e-310,6.947728935124893e-310,0.000000000000000e+00,0.000000000000000e+00,
358,-3.544683544304358e-02,-6.434062267343665e-18,-3.375738120444129e-04,6.945655624721474e-03,6.947728935124893e-310,6.947728935124893e-310,0.000000000000000e+00,0.000000000000000e+00,
359,-3.458227848101728e-02,-2.141299290658871e-18,-3.377206283909776e-04,7.084912460361609e-03,6.947728935124893e-310,6.947728935124893e-310,0.000000000000000e+00,0.000000000000000e+00,
360,-3.371772151899097e-02,2.137911158869854e-18,-3.373323030039953e-04,7.220788422455661e-03,6.920336216895902e-310,6.920336216895902e-310,0.000000000000000e+00,0.000000000000000e+00,
361,-3.285316455696466e-02,6.430674135554648e-18,-3.364171250404349e-04,7.353249378499914e-03,6.920336216895902e-310,6.920336216895902e-310,0.000000000000000e+00,0.000000000000000e+00,
362,-3.198860759493835e-02,1.072004898045043e-17,-3.349840085144745e-04,7.482262758736142e-03,6.920336216895902e-310,6.920336216895902e-310,0.000000000000000e+00,0.000000000000000e+00,
363,-3.112405063291204e-02,1.500942382534620e-17,-3.330423670611480e-04,7.607796874186256e-03,6.920336216895902e-310,6.920336216895902e-310,0.000000000000000e+00,0.000000000000000e+00,
364,-3.025949367088573e-02,1.929879867024198e-17,-3.306021291052216e-04,7.729821112073518e-03,6.920336216895902e-310,6.920336216895902e-310,0.000000000000000e+00,0.000000000000000e+00,
365,-2.939493670885943e-02,2.359156164692677e-17,-3.276737341814475e-04,7.848305981020711e-03,6.920336216895902e-310,6.920336216895902e-310,0.000000000000000e+00,0.000000000000000e+00,
366,-2.853037974683311e-02,2.787754836003353e-17,-3.242680734764617e-04,7.963222881280834e-03,6.920336216895902e-310,6.920336216895902e-310,0.000000000000000e+00,0.000000000000000e+00,
367,-2.766582278480680e-02,3.216692320492931e-17,-3.203966283540183e-04,8.074545314675025e-03,6.920336216895902e-310,6.920336216895902e-310,0.000000000000000e+00,0.000000000000000e+00,
368,-2.680126582278049e-02,3.645629804982509e-17,-3.160714472544694e-04,8.182248823020861e-03,6.920336216895902e-310,6.920336216895902e-310,0.000000000000000e+00,0.000000000000000e+00,
369,-2.593670886075418e-02,4.074567289472086e-17,-3.113051016723819e-04,8.286310830839590e-03,6.920336216895902e-310,6.920336216895902e-310,0.000000000000000e+00,0.000000000000000e+00,
370,-2.507215189872787e-02,4.503504773961664e-17,-3.061105780765560e-04,8.386710031688029e-03,6.920336216895902e-310,6.920336216895902e-310,0.000000000000000e+00,0.000000000000000e+00,
371,-2.420759493670156e-02,4.932781071630143e-17,-3.005012605455473e-04,8.483426429049309e-03,6.920336216895902e-310,6.920336216895902e-310,0.000000000000000e+00,0.000000000000000e+00,
372,-2.334303797467526e-02,5.360702116583016e-17,-2.944908346735590e-04,8.576440695684872e-03,6.920336216895902e-310,6.920336216895902e-310,0.000000000000000e+00,0.000000000000000e+00,
373,-2.247848101264894e-02,5.789639601072594e-17,-2.880933486357329e-04,8.665734905806410e-03,6.920336216895902e-310,6.920336216895902e-310,0.000000000000000e+00,0.000000000000000e+00,
374,-2.161392405062263e-02,6.218915898741073e-17,-2.813232261575907e-04,8.751292805854932e-03,6.920336216895902e-310,6.920336216895902e-310,0.000000000000000e+00,0.000000000000000e+00,
375,-2.074936708859633e-02,6.647853383230651e-17,-2.741952759607030e-04,8.833100146702093e-03,6.920336216895902e-310,6.920336216895902e-310,0.000000000000000e+00,0.000000000000000e+00,
376,-1.988481012657001e-02,7.076960274309679e-17,-2.667245930905253e-04,8.911143985337586e-03,6.920336216895902e-310,6.920336216895902e-310,0.000000000000000e+00,0.000000000000000e+00,
377,-1.902025316454370e-02,7.506236571978159e-17,-2.589265384247016e-04,8.985412754666116e-03,6.920336216895902e-310,6.920336216895902e-310,0.000000000000000e+00,0.000000000000000e+00,
378,-1.815569620251739e-02,7.933988210341580e-17,-2.508166879458506e-04,9.055895924782540e-03,6.920336216895902e-310,6.920336216895902e-310,0.000000000000000e+00,0.000000000000000e+00,
379,-1.729113924049109e-02,8.363603321188962e-17,-2.424108430178445e-04,9.122584394912286e-03,6.920336216895902e-310,6.920336216895902e-310,0.000000000000000e+00,0.000000000000000e+00,
380,-1.642658227846611e-02,8.792710212267990e-17,-2.337250040102785e-04,9.185470440995012e-03,6.931968926523226e-310,6.931968926523226e-310,0.000000000000000e+00,0.000000000000000e+00,
381,-1.556202531644157e-02,9.221478290168117e-17,-2.247753612284880e-04,9.244547961350932e-03,6.931968926523226e-310,6.931968926523226e-310,0.000000000000000e+00,0.000000000000000e+00,
382,-1.469746835441705e-02,9.651093401015498e-17,-2.155782848381053e-04,9.299812655959909e-03,6.931968926523226e-310,6.931968926523226e-310,0.000000000000000e+00,0.000000000000000e+00,
383,-1.383291139239251e-02,1.008070851186288e-16,-2.061502881597177e-04,9.351261816409107e-03,6.931968926523226e-310,6.931968926523226e-310,0.000000000000000e+00,0.000000000000000e+00,
384,-1.296835443036798e-02,1.050761311727905e-16,-1.965079774829515e-04,9.398894001324574e-03,6.931968926523226e-310,6.931968926523226e-310,0.000000000000000e+00,0.000000000000000e+00,
385,-1.210379746834345e-02,1.093773644789478e-16,-1.866680377016357e-04,9.442709214992191e-03,6.931968926523226e-310,6.931968926523226e-310,0.000000000000000e+00,0.000000000000000e+00,
386,-1.123924050631891e-02,1.136582689943710e-16,-1.766471992180041e-04,9.482708753211869e-03,6.931968926523226e-310,6.931968926523226e-310,0.000000000000000e+00,0.000000000000000e+00,
387,-1.037468354429438e-02,1.179484908722141e-16,-1.664622272687386e-04,9.518895363254617e-03,6.931968926523226e-310,6.931968926523226e-310,0.000000000000000e+00,0.000000000000000e+00,
388,-9.510126582269851e-03,1.222454890136351e-16,-1.561298888162896e-04,9.551272838284740e-03,6.931968926523226e-310,6.931968926523226e-310,0.000000000000000e+00,0.000000000000000e+00,
389,-8.645569620245319e-03,1.265246994631639e-16,-1.456669146512614e-04,9.579845654253629e-03,6.931968926523226e-310,6.931968926523226e-310,0.000000000000000e+00,0.000000000000000e+00,
390,-7.781012658220791e-03,1.308140743080596e-16,-1.350899878823932e-04,9.604619252394302e-03,6.931968926523226e-310,6.931968926523226e-310,0.000000000000000e+00,0.000000000000000e+00,
391,-6.916455696196257e-03,1.350966728893774e-16,-1.244157385246940e-04,9.625600318604379e-03,6.931968926523226e-310,6.931968926523226e-310,0.000000000000000e+00,0.000000000000000e+00,
392,-6.051898734171725e-03,1.393919769649039e-16,-1.136607288165096e-04,9.642796976041149e-03,6.931968926523226e-310,6.931968926523226e-310,0.000000000000000e+00,0.000000000000000e+00,
393,-5.187341772147186e-03,1.436817753262733e-16,-1.028414361904594e-04,9.656218915316823e-03,6.931968926523226e-310,6.931968926523226e-310,0.000000000000000e+00,0.000000000000000e+00,
394,-4.322784810122660e-03,1.479758088523790e-16,-9.197422854998801e-05,9.665877175908326e-03,6.931968926523226e-310,6.931968926523226e-310,0.000000000000000e+00,0.000000000000000e+00,
395,-3.458227848098131e-03,1.522711129279056e-16,-8.107533587274420e-05,9.671783974921256e-03,6.931968926523226e-310,6.931968926523226e-310,0.000000000000000e+00,0.000000000000000e+00,
396,-2.593670886073597e-03,1.565397354655936e-16,-7.016083456213563e-05,9.673952642756412e-03,6.931968926523226e-310,6.931968926523226e-310,0.000000000000000e+00,0.000000000000000e+00,
397,-1.729113924049062e-03,1.608360983323042e-16,-5.924663274835656e-05,9.672397422074052e-03,6.931968926523226e-310,6.931968926523226e-310,0.000000000000000e+00,0.000000000000000e+00,
398,-8.645569620245347e-04,1.651303436166467e-16,-4.834845167359144e-05,9.667133402595758e-03,6.931968926523226e-310,6.931968926523226e-310,0.000000000000000e+00,0.000000000000000e+00,
399,8.645569620245343e-04,1.694201419780161e-16,-2.666204398946618e-05,9.645543368990851e-03,6.926090691228515e-310,6.926090691228515e-310,0.000000000000000e+00,0.000000000000000e+00,
400,1.729113924049062e-03,1.694133657144381e-16,-1.590424550079644e-05,9.629250907017335e-03,6.926090691228515e-310,6.926090691228515e-310,0.000000000000000e+00,0.000000000000000e+00,
401,2.593670886073597e-03,1.694201419780161e-16,-5.223300651993412e-06,9.609316686940478e-03,6.926090691228515e-310,6.926090691228515e-310,0.000000000000000e+00,0.000000000000000e+00,
402,3.458227848098130e-03,1.694269182415942e-16,5.366144634406296e-06,9.585758960540567e-03,6.926090691228515e-310,6.926090691228515e-310,0.000000000000000e+00,0.000000000000000e+00,
403,4.322784810122658e-03,1.694269182415942e-16,1.584969259957220e-05,9.558596681146853e-03,6.926090691228515e-310,6.926090691228515e-310,0.000000000000000e+00,0.000000000000000e+00,
404,5.187341772147188e-03,1.694201419780161e-16,2.621321958485357e-05,9.527849913299576e-03,6.926090691228515e-310,6.926090691228515e-310,0.000000000000000e+00,0.000000000000000e+00,
405,6.051898734171726e-03,1.694201419780161e-16,3.644287790767941e-05,9.493539747588556e-03,6.926090691228515e-310,6.926090691228515e-310,0.000000000000000e+00,0.000000000000000e+00,
406,6.916455696196254e-03,1.694201419780161e-16,4.652510254113386e-05,9.455688043145080e-03,6.926090691228515e-310,6.926090691228515e-310,0.000000000000000e+00,0.000000000000000e+00,
407,7.781012658220791e-03,1.694065894508601e-16,5.644663827899057e-05,9.414317721487564e-03,6.926090691228515e-310,6.926090691228515e-310,0.000000000000000e+00,0.000000000000000e+00,
408,8.645569620245323e-03,1.694269182415942e-16,6.619454528577943e-05,9.369452626004629e-03,6.926090691228515e-310,6.926090691228515e-310,0.000000000000000e+00,0.000000000000000e+00,
409,9.510126582269848e-03,1.694201419780161e-16,7.575621221052488e-05,9.321117592221026e-03,6.926090691228515e-310,6.926090691228515e-310,0.000000000000000e+00,0.000000000000000e+00,
410,1.037468354429439e-02,1.694201419780161e-16,8.511933079468023e-05,9.269337867882348e-03,6.926090691228515e-310,6.926090691228515e-310,0.000000000000000e+00,0.000000000000000e+00,
411,1.123924050631891e-02,1.694133657144381e-16,9.427189946597272e-05,9.214139000353689e-03,6.926090691228515e-310,6.926090691228515e-310,0.000000000000000e+00,0.000000000000000e+00,
412,1.210379746834346e-02,1.694133657144381e-16,1.032022282266728e-04,9.155546814731796e-03,6.926090691228515e-310,6.926090691228515e-310,0.000000000000000e+00,0.000000000000000e+00,
413,1.296835443036798e-02,1.694133657144381e-16,1.118989360261874e-04,9.093587297886348e-03,6.926090691228515e-310,6.926090691228515e-310,0.000000000000000e+00,0.000000000000000e+00,
414,1.383291139239251e-02,1.694201419780161e-16,1.203509776025886e-04,9.028287044874912e-03,6.926090691228515e-310,6.926090691228515e-310,0.000000000000000e+00,0.000000000000000e+00,
415,1.469746835441705e-02,1.694269182415942e-16,1.285476293075160e-04,8.959673004461582e-03,6.926090691228515e-310,6.926090691228515e-310,0.000000000000000e+00,0.000000000000000e+00,
416,1.556202531644158e-02,1.694201419780161e-16,1.364785264758724e-04,8.887772848220881e-03,6.926090691228515e-310,6.926090691228515e-310,0.000000000000000e+00,0.000000000000000e+00,
417,1.642658227846611e-02,1.694201419780161e-16,1.441336545907871e-04,8.812614753710816e-03,6.926090691228515e-310,6.926090691228515e-310,0.000000000000000e+00,0.000000000000000e+00,
418,1.729113924049109e-02,1.694133657144381e-16,1.515033726886964e-04,8.734227663627733e-03,6.899819563497903e-310,6.899819563497903e-310,0.000000000000000e+00,0.000000000000000e+00,
419,1.815569620251740e-02,1.694133657144381e-16,1.585783899814797e-04,8.652640976521717e-03,6.899819563497903e-310,6.899819563497903e-310,0.000000000000000e+00,0.000000000000000e+00,
420,1.902025316454371e-02,1.694336945051722e-16,1.653497697973783e-04,8.567884553929230e-03,6.899819563497903e-310,6.899819563497903e-310,0.000000000000000e+00,0.000000000000000e+00,
421,1.988481012657002e-02,1.694201419780161e-16,1.718088995641074e-04,8.479988370145502e-03,6.899819563497903e-310,6.899819563497903e-310,0.000000000000000e+00,0.000000000000000e+00,
422,2.074936708859632e-02,1.694201419780161e-16,1.779475280564542e-04,8.388982840140733e-03,6.899819563497903e-310,6.899819563497903e-310,0.000000000000000e+00,0.000000000000000e+00,
423,2.161392405062264e-02,1.694269182415942e-16,1.837577295305390e-04,8.294898452829222e-03,6.899819563497903e-310,6.899819563497903e-310,0.000000000000000e+00,0.000000000000000e+00,
424,2.247848101264895e-02,1.694133657144381e-16,1.892319264370015e-04,8.197766018084977e-03,6.899819563497903e-310,6.899819563497903e-310,0.000000000000000e+00,0.000000000000000e+00,
425,2.334303797467525e-02,1.694201419780161e-16,1.943628226054251e-04,8.097616071936030e-03,6.899819563497903e-310,6.899819563497903e-310,0.000000000000000e+00,0.000000000000000e+00,
426,2.420759493670156e-02,1.694269182415942e-16,1.991434704092777e-04,7.994479455306697e-03,6.899819563497903e-310,6.899819563497903e-310,0.000000000000000e+00,0.000000000000000e+00,
427,2.507215189872787e-02,1.694269182415942e-16,2.035672755873880e-04,7.888387355413628e-03,6.899819563497903e-310,6.899819563497903e-310,0.000000000000000e+00,0.000000000000000e+00,
428,2.593670886075418e-02,1.694201419780161e-16,2.076280401204185e-04,7.779371666417519e-03,6.899819563497903e-310,6.899819563497903e-310,0.000000000000000e+00,0.000000000000000e+00,
429,2.680126582278049e-02,1.694201419780161e-16,2.113198725071472e-04,7.667464247194852e-03,6.899819563497903e-310,6.899819563497903e-310,0.000000000000000e+00,0.000000000000000e+00,
430,2.766582278480680e-02,1.694167538462271e-16,2.146372110654991e-04,7.552697117667011e-03,6.899819563497903e-310,6.899819563497903e-310,0.000000000000000e+00,0.000000000000000e+00,
431,2.853037974683311e-02,1.694201419780161e-16,2.175747672206306e-04,7.435102049111710e-03,6.899819563497903e-310,6.899819563497903e-310,0.000000000000000e+00,0.000000000000000e+00,
432,2.939493670885942e-02,1.694235301098052e-16,2.201275467996956e-04,7.314710731025641e-03,6.899819563497903e-310,6.899819563497903e-310,0.000000000000000e+00,0.000000000000000e+00,
433,3.025949367088573e-02,1.694235301098052e-16,2.222908718983079e-04,7.191554950568802e-03,6.899819563497903e-310,6.899819563497903e-310,0.000000000000000e+00,0.000000000000000e+00,
434,3.112405063291204e-02,1.694201419780161e-16,2.240604962000930e-04,7.065667429486418e-03,6.899819563497903e-310,6.899819563497903e-310,0.000000000000000e+00,0.000000000000000e+00,
435,3.198860759493835e-02,1.694235301098052e-16,2.254325132812365e-04,6.937081155469725e-03,6.899819563497903e-310,6.899819563497903e-310,0.000000000000000e+00,0.000000000000000e+00,
436,3.285316455696465e-02,1.694201419780161e-16,2.264033158318289e-04,6.805829099206925e-03,6.899819563497903e-310,6.899819563497903e-310,0.000000000000000e+00,0.000000000000000e+00,
437,3.371772151899098e-02,1.694167538462271e-16,2.269695632760150e-04,6.671944028505791e-03,6.899819563497903e-310,6.899819563497903e-310,0.000000000000000e+00,0.000000000000000e+00,
438,3.458227848101728e-02,1.694201419780161e-16,2.271282111059144e-04,6.535458721061208e-03,6.920058130733321e-310,6.920058130733321e-310,0.000000000000000e+00,0.000000000000000e+00,
439,3.544683544304360e-02,1.694167538462271e-16,2.268766085854713e-04,6.396406590828925e-03,6.920058130733321e-310,6.920058130733321e-310,0.000000000000000e+00,0.000000000000000e+00,
440,3.631139240506991e-02,1.694201419780161e-16,2.262124986982596e-04,6.254821662812470e-03,6.920058130733321e-310,6.920058130733321e-310,0.000000000000000e+00,0.000000000000000e+00,
441,3.717594936709621e-02,1.694201419780161e-16,2.251340234523765e-04,6.110738589921356e-03,6.920058130733321e-310,6.920058130733321e-310,0.000000000000000e+00,0.000000000000000e+00,
442,3.804050632912253e-02,1.694201419780161e-16,2.236397708873018e-04,5.964192917014529e-03,6.920058130733321e-310,6.920058130733321e-310,0.000000000000000e+00,0.000000000000000e+00,
443,3.890506329114882e-02,1.694235301098052e-16,2.217286154002876e-04,5.815220091086976e-03,6.920058130733321e-310,6.920058130733321e-310,0.000000000000000e+00,0.000000000000000e+00,
444,3.976962025317514e-02,1.694167538462271e-16,2.193998284386330e-04,5.663856124101009e-03,6.920058130733321e-310,6.920058130733321e-310,0.000000000000000e+00,0.000000000000000e+00,
445,4.063417721520145e-02,1.694201419780161e-16,2.166531226431907e-04,5.510137851701737e-03,6.920058130733321e-310,6.920058130733321e-310,0.000000000000000e+00,0.000000000000000e+00,
446,4.149873417722777e-02,1.694201419780161e-16,2.134886335541990e-04,5.354102786710166e-03,6.920058130733321e-310,6.920058130733321e-310,0.000000000000000e+00,0.000000000000000e+00,
447,4.236329113925407e-02,1.694235301098052e-16,2.099068428811132e-04,5.195788682945152e-03,6.920058130733321e-310,6.920058130733321e-310,0.000000000000000e+00,0.000000000000000e+00,
448,4.322784810128039e-02,1.694167538462271e-16,2.059085955035172e-04,5.035233622954399e-03,6.920058130733321e-310,6.920058130733321e-310,0.000000000000000e+00,0.000000000000000e+00,
449,4.409240506330669e-02,1.694201419780161e-16,2.014951671873268e-04,4.872476389099530e-03,6.920058130733321e-310,6.920058130733321e-310,0.000000000000000e+00,0.000000000000000e+00,
450,4.495696202533300e-02,1.694167538462271e-16,1.966684493987133e-04,4.707557420089452e-03,6.920058130733321e-310,6.920058130733321e-310,0.000000000000000e+00,0.000000000000000e+00,
451,4.582151898735931e-02,1.694167538462271e-16,1.914308166415094e-04,4.540518071309688e-03,6.920058130733321e-310,6.920058130733321e-310,0.000000000000000e+00,0.000000000000000e+00,
452,4.668607594938561e-02,1.694201419780161e-16,1.857850493295123e-04,4.371400209749113e-03,6.920058130733321e-310,6.920058130733321e-310,0.000000000000000e+00,0.000000000000000e+00,
453,4.755063291141193e-02,1.694218360439106e-16,1.797344001353646e-04,4.200246521784873e-03,6.920058130733321e-310,6.920058130733321e-310,0.000000000000000e+00,0.000000000000000e+00,
454,4.841518987343824e-02,1.694218360439106e-16,1.732827131926536e-04,4.027101082966528e-03,6.920058130733321e-310,6.920058130733321e-310,0.000000000000000e+00,0.000000000000000e+00,
455,4.927974683546454e-02,1.694320004392777e-16,1.664343479068782e-04,3.852008964923131e-03,6.920058130733321e-310,6.920058130733321e-310,0.000000000000000e+00,0.000000000000000e+00,
456,5.014430379749087e-02,1.694150597803326e-16,1.591942322806181e-04,3.675016510385433e-03,6.920058130733321e-310,6.920058130733321e-310,0.000000000000000e+00,0.000000000000000e+00,
457,5.100886075951716e-02,1.694150597803326e-16,1.515678558962430e-04,3.496171259695546e-03,6.920058130733321e-310,6.920058130733321e-310,0.000000000000000e+00,0.000000000000000e+00,
458,5.187341772154185e-02,1.694218360439106e-16,1.435613653794163e-04,3.315522382384604e-03,6.912296141725745e-310,6.912296141725745e-310,0.000000000000000e+00,0.000000000000000e+00,
459,5.273797468356593e-02,1.694218360439106e-16,1.351816892955423e-04,3.133121235655603e-03,6.912296141725745e-310,6.912296141725745e-310,0.000000000000000e+00,0.000000000000000e+00,
460,5.360253164559006e-02,1.694218360439106e-16,1.264366243303443e-04,2.949021688889179e-03,6.912296141725745e-310,6.912296141725745e-310,0.000000000000000e+00,0.000000000000000e+00,
461,5.446708860761418e-02,1.694218360439106e-16,1.173350497158975e-04,2.763281071867499e-03,6.912296141725745e-310,6.912296141725745e-310,0.000000000000000e+00,0.000000000000000e+00,
462,5.533164556963831e-02,1.694201419780161e-16,1.078873940172085e-04,2.575962254441768e-03,6.912296141725745e-310,6.912296141725745e-310,0.000000000000000e+00,0.000000000000000e+00,
463,5.619620253166239e-02,1.694133657144381e-16,9.810635416312037e-05,2.387136757466183e-03,6.912296141725745e-310,6.912296141725745e-310,0.000000000000000e+00,0.000000000000000e+00,
464,5.706075949368652e-02,1.694184479121216e-16,8.800795818624907e-05,2.196889312131009e-03,6.912296141725745e-310,6.912296141725745e-310,0.000000000000000e+00,0.000000000000000e+00,
465,5.792531645571063e-02,1.694184479121216e-16,7.761360596484572e-05,2.005326660122093e-03,6.912296141725745e-310,6.912296141725745e-310,0.000000000000000e+00,0.000000000000000e+00,
466,5.878987341773474e-02,1.694201419780161e-16,6.695323030713931e-05,1.812591054021525e-03,6.912296141725745e-310,6.912296141725745e-310,0.000000000000000e+00,0.000000000000000e+00,
467,5.965443037975887e-02,1.694243771427524e-16,5.607037576240338e-05,1.618882039266486e-03,6.912296141725745e-310,6.912296141725745e-310,0.000000000000000e+00,0.000000000000000e+00,
468,6.051898734178298e-02,1.694167538462271e-16,4.503128864736897e-05,1.424495717271698e-03,6.912296141725745e-310,6.912296141725745e-310,0.000000000000000e+00,0.000000000000000e+00,
469,6.138354430380709e-02,1.694167538462271e-16,3.393972280028469e-05,1.229889408835479e-03,6.912296141725745e-310,6.912296141725745e-310,0.000000000000000e+00,0.000000000000000e+00,
470,6.224810126583119e-02,1.694176008791744e-16,2.296147402573521e-05,1.035791637890478e-03,6.912296141725745e-310,6.912296141725745e-310,0.000000000000000e+00,0.000000000000000e+00,
471,6.311265822785531e-02,1.694214125274370e-16,1.236389701957465e-05,8.433872779850639e-04,6.912296141725745e-310,6.912296141725745e-310,0.000000000000000e+00,0.000000000000000e+00,
472,6.397721518987944e-02,1.694222595603843e-16,2.577675420594421e-06,6.546345619665248e-04,6.912296141725745e-310,6.912296141725745e-310,0.000000000000000e+00,0.000000000000000e+00,
473,6.484177215190352e-02,1.694201419780161e-16,-5.713253620246043e-06,4.728035352278699e-04,6.912296141725745e-310,6.912296141725745e-310,0.000000000000000e+00,0.000000000000000e+00,
474,6.570632911392765e-02,1.694078600002809e-16,-1.146757240923138e-05,3.033985089740986e-04,6.912296141725745e-310,6.912296141725745e-310,0.000000000000000e+00,0.000000000000000e+00,
475,6.657088607595177e-02,1.694188714285953e-16,-1.323065138401661e-05,1.557355510263601e-04,6.912296141725745e-310,6.912296141725745e-310,0.000000000000000e+00,0.000000000000000e+00,
476,6.743544303797586e-02,1.694201419780161e-16,-9.441903548836616e-06,4.566731679517207e-05,6.912296141725745e-310,6.912296141725745e-310,0.000000000000000e+00,0.000000000000000e+00,
