"PointID","x","y","Displacement_1","Displacement_2","Sxx","Syy","Sxy","Von_Mises_Stress"
0,-6.830000000000000e-02,1.000000000000000e-04,0.000000000000000e+00,0.000000000000000e+00,0.000000000000000e+00,0.000000000000000e+00,0.000000000000000e+00,0.000000000000000e+00,
1,0.000000000000000e+00,1.000000000000000e-04,8.346679638103407e-07,1.444689821648037e-03,0.000000000000000e+00,0.000000000000000e+00,0.000000000000000e+00,0.000000000000000e+00,
2,6.830000000000000e-02,1.000000000000000e-04,0.000000000000000e+00,0.000000000000000e+00,0.000000000000000e+00,0.000000000000000e+00,0.000000000000000e+00,0.000000000000000e+00,
3,6.830000000000000e-02,-1.000000000000000e-04,0.000000000000000e+00,0.000000000000000e+00,0.000000000000000e+00,0.000000000000000e+00,0.000000000000000e+00,0.000000000000000e+00,
4,0.000000000000000e+00,-1.000000000000000e-04,-3.148481847532284e-07,1.445217872606713e-03,0.000000000000000e+00,0.000000000000000e+00,0.000000000000000e+00,0.000000000000000e+00,
5,-6.830000000000000e-02,-1.000000000000000e-04,0.000000000000000e+00,0.000000000000000e+00,0.000000000000000e+00,0.000000000000000e+00,0.000000000000000e+00,0.000000000000000e+00,
6,-6.743544303797798e-02,1.000000000000000e-04,-3.807460831358242e-06,1.994356881798635e-05,0.000000000000000e+00,0.000000000000000e+00,0.000000000000000e+00,0.000000000000000e+00,
7,-6.657088607595596e-02,1.000000000000000e-04,-5.608894585581674e-06,6.058074877129855e-05,0.000000000000000e+00,0.000000000000000e+00,0.000000000000000e+00,0.000000000000000e+00,
8,-6.570632911393393e-02,1.000000000000000e-04,-6.779073571250706e-06,1.071051373217997e-04,0.000000000000000e+00,0.000000000000000e+00,0.000000000000000e+00,0.000000000000000e+00,
9,-6.484177215191191e-02,1.000000000000000e-04,-7.710324666357693e-06,1.547918681537420e-04,0.000000000000000e+00,0.000000000000000e+00,0.000000000000000e+00,0.000000000000000e+00,
10,-6.397721518988989e-02,1.000000000000000e-04,-8.512472799775494e-06,2.019905307067597e-04,0.000000000000000e+00,0.000000000000000e+00,0.000000000000000e+00,0.000000000000000e+00,
11,-6.311265822786787e-02,1.000000000000000e-04,-9.230777057804087e-06,2.481845618683291e-04,0.000000000000000e+00,0.000000000000000e+00,0.000000000000000e+00,0.000000000000000e+00,
12,-6.224810126584584e-02,1.000000000000000e-04,-9.881718236206186e-06,2.932219874992560e-04,0.000000000000000e+00,0.000000000000000e+00,0.000000000000000e+00,0.000000000000000e+00,
13,-6.138354430382382e-02,1.000000000000000e-04,-1.047407789561577e-05,3.370814953827408e-04,0.000000000000000e+00,0.000000000000000e+00,0.000000000000000e+00,0.000000000000000e+00,
14,-6.051898734180180e-02,1.000000000000000e-04,-1.101265090833516e-05,3.797813216088325e-04,0.000000000000000e+00,0.000000000000000e+00,0.000000000000000e+00,0.000000000000000e+00,
15,-5.965443037977977e-02,1.000000000000000e-04,-1.150104565497192e-05,4.213510256304767e-04,0.000000000000000e+00,0.000000000000000e+00,0.000000000000000e+00,0.000000000000000e+00,
16,-5.878987341775775e-02,1.000000000000000e-04,-1.194239861980037e-05,4.618222174095704e-04,0.000000000000000e+00,0.000000000000000e+00,0.000000000000000e+00,0.000000000000000e+00,
17,-5.792531645573573e-02,1.000000000000000e-04,-1.233940404857537e-05,5.012271087387269e-04,0.000000000000000e+00,0.000000000000000e+00,0.000000000000000e+00,0.000000000000000e+00,
18,-5.706075949371370e-02,1.000000000000000e-04,-1.269431056783989e-05,5.395941386278826e-04,0.000000000000000e+00,0.000000000000000e+00,0.000000000000000e+00,0.000000000000000e+00,
19,-5.619620253169168e-02,1.000000000000000e-04,-1.300931169220244e-05,5.769497498292915e-04,0.000000000000000e+00,0.000000000000000e+00,0.000000000000000e+00,0.000000000000000e+00,
20,-5.533164556966966e-02,1.000000000000000e-04,-1.328634551983713e-05,6.133178007719180e-04,0.000000000000000e+00,0.000000000000000e+00,0.000000000000000e+00,0.000000000000000e+00,
21,-5.446708860764764e-02,1.000000000000000e-04,-1.352728555815331e-05,6.487203161744799e-04,0.000000000000000e+00,0.000000000000000e+00,0.000000000000000e+00,0.000000000000000e+00,
22,-5.360253164562562e-02,1.000000000000000e-04,-1.373390075789845e-05,6.831780053451473e-04,0.000000000000000e+00,0.000000000000000e+00,0.000000000000000e+00,0.000000000000000e+00,
23,-5.273797468360359e-02,1.000000000000000e-04,-1.390787470148749e-05,7.167103153302057e-04,0.000000000000000e+00,0.000000000000000e+00,0.000000000000000e+00,0.000000000000000e+00,
24,-5.187341772158157e-02,1.000000000000000e-04,-1.405082275642957e-05,7.493358051901427e-04,0.000000000000000e+00,0.000000000000000e+00,0.000000000000000e+00,0.000000000000000e+00,
25,-5.100886075955900e-02,1.000000000000000e-04,-1.416421578382787e-05,7.810721990839266e-04,0.000000000000000e+00,0.000000000000000e+00,0.000000000000000e+00,0.000000000000000e+00,
26,-5.014430379753478e-02,1.000000000000000e-04,-1.424938240029130e-05,8.119356389392240e-04,0.000000000000000e+00,0.000000000000000e+00,0.000000000000000e+00,0.000000000000000e+00,
27,-4.927974683551056e-02,1.000000000000000e-04,-1.430765809348073e-05,8.419410281807790e-04,0.000000000000000e+00,0.000000000000000e+00,0.000000000000000e+00,0.000000000000000e+00,
28,-4.841518987348634e-02,1.000000000000000e-04,-1.434032492461387e-05,8.711028847621612e-04,0.000000000000000e+00,0.000000000000000e+00,0.000000000000000e+00,0.000000000000000e+00,
29,-4.755063291146212e-02,1.000000000000000e-04,-1.434861709830512e-05,8.994349779900380e-04,0.000000000000000e+00,0.000000000000000e+00,0.000000000000000e+00,0.000000000000000e+00,
30,-4.668607594943790e-02,1.000000000000000e-04,-1.433383392457234e-05,9.269512410658572e-04,0.000000000000000e+00,0.000000000000000e+00,0.000000000000000e+00,0.000000000000000e+00,
31,-4.582151898741368e-02,1.000000000000000e-04,-1.429712378153138e-05,9.536658338288557e-04,0.000000000000000e+00,0.000000000000000e+00,0.000000000000000e+00,0.000000000000000e+00,
32,-4.495696202538947e-02,1.000000000000000e-04,-1.423946813563501e-05,9.795916843326861e-04,0.000000000000000e+00,0.000000000000000e+00,0.000000000000000e+00,0.000000000000000e+00,
33,-4.409240506336524e-02,1.000000000000000e-04,-1.416187771445149e-05,1.004740738642344e-03,0.000000000000000e+00,0.000000000000000e+00,0.000000000000000e+00,0.000000000000000e+00,
34,-4.322784810134103e-02,1.000000000000000e-04,-1.406544810716498e-05,1.029124848392488e-03,0.000000000000000e+00,0.000000000000000e+00,0.000000000000000e+00,0.000000000000000e+00,
35,-4.236329113931681e-02,1.000000000000000e-04,-1.395114328255069e-05,1.052756364622877e-03,0.000000000000000e+00,0.000000000000000e+00,0.000000000000000e+00,0.000000000000000e+00,
36,-4.149873417729259e-02,1.000000000000000e-04,-1.381977140870630e-05,1.075646302884342e-03,0.000000000000000e+00,0.000000000000000e+00,0.000000000000000e+00,0.000000000000000e+00,
37,-4.063417721526837e-02,1.000000000000000e-04,-1.367218207495599e-05,1.097805024263063e-03,0.000000000000000e+00,0.000000000000000e+00,0.000000000000000e+00,0.000000000000000e+00,
38,-3.976962025324415e-02,1.000000000000000e-04,-1.350921476647018e-05,1.119242415211294e-03,0.000000000000000e+00,0.000000000000000e+00,0.000000000000000e+00,0.000000000000000e+00,
39,-3.890506329121993e-02,1.000000000000000e-04,-1.333166921278180e-05,1.139968194213354e-03,0.000000000000000e+00,0.000000000000000e+00,0.000000000000000e+00,0.000000000000000e+00,
40,-3.804050632919571e-02,1.000000000000000e-04,-1.314028158479853e-05,1.159991456237400e-03,0.000000000000000e+00,0.000000000000000e+00,0.000000000000000e+00,0.000000000000000e+00,
41,-3.717594936717150e-02,1.000000000000000e-04,-1.293571723956448e-05,1.179320743044961e-03,0.000000000000000e+00,0.000000000000000e+00,0.000000000000000e+00,0.000000000000000e+00,
42,-3.631139240514728e-02,1.000000000000000e-04,-1.271865637796487e-05,1.197963810600436e-03,0.000000000000000e+00,0.000000000000000e+00,0.000000000000000e+00,0.000000000000000e+00,
43,-3.544683544312306e-02,1.000000000000000e-04,-1.248981273928640e-05,1.215928538502306e-03,0.000000000000000e+00,0.000000000000000e+00,0.000000000000000e+00,0.000000000000000e+00,
44,-3.458227848109884e-02,1.000000000000000e-04,-1.224983260659321e-05,1.233222514880109e-03,0.000000000000000e+00,0.000000000000000e+00,0.000000000000000e+00,0.000000000000000e+00,
45,-3.371772151907242e-02,1.000000000000000e-04,-1.199933310322199e-05,1.249853086195326e-03,0.000000000000000e+00,0.000000000000000e+00,0.000000000000000e+00,0.000000000000000e+00,
46,-3.285316455704381e-02,1.000000000000000e-04,-1.173889785815792e-05,1.265827137679362e-03,0.000000000000000e+00,0.000000000000000e+00,0.000000000000000e+00,0.000000000000000e+00,
47,-3.198860759501521e-02,1.000000000000000e-04,-1.146913241656236e-05,1.281151264300279e-03,0.000000000000000e+00,0.000000000000000e+00,0.000000000000000e+00,0.000000000000000e+00,
48,-3.112405063298660e-02,1.000000000000000e-04,-1.119063247940269e-05,1.295832110540609e-03,0.000000000000000e+00,0.000000000000000e+00,0.000000000000000e+00,0.000000000000000e+00,
49,-3.025949367095799e-02,1.000000000000000e-04,-1.090396373944720e-05,1.309876212220628e-03,0.000000000000000e+00,0.000000000000000e+00,0.000000000000000e+00,0.000000000000000e+00,
50,-2.939493670892938e-02,1.000000000000000e-04,-1.060972427174066e-05,1.323290126877943e-03,0.000000000000000e+00,0.000000000000000e+00,0.000000000000000e+00,0.000000000000000e+00,
51,-2.853037974690077e-02,1.000000000000000e-04,-1.030843202410709e-05,1.336080641015291e-03,0.000000000000000e+00,0.000000000000000e+00,0.000000000000000e+00,0.000000000000000e+00,
52,-2.766582278487216e-02,1.000000000000000e-04,-1.000052442964838e-05,1.348253767629116e-03,0.000000000000000e+00,0.000000000000000e+00,0.000000000000000e+00,0.000000000000000e+00,
53,-2.680126582284355e-02,1.000000000000000e-04,-9.686476447021174e-06,1.359815159473916e-03,0.000000000000000e+00,0.000000000000000e+00,0.000000000000000e+00,0.000000000000000e+00,
54,-2.593670886081494e-02,1.000000000000000e-04,-9.366791291946924e-06,1.370770308927768e-03,0.000000000000000e+00,0.000000000000000e+00,0.000000000000000e+00,0.000000000000000e+00,
55,-2.507215189878632e-02,1.000000000000000e-04,-9.041965555983560e-06,1.381124901150199e-03,0.000000000000000e+00,0.000000000000000e+00,0.000000000000000e+00,0.000000000000000e+00,
56,-2.420759493675772e-02,1.000000000000000e-04,-8.712514603539828e-06,1.390884633469127e-03,0.000000000000000e+00,0.000000000000000e+00,0.000000000000000e+00,0.000000000000000e+00,
57,-2.334303797472911e-02,1.000000000000000e-04,-8.378934013040899e-06,1.400055727164201e-03,0.000000000000000e+00,0.000000000000000e+00,0.000000000000000e+00,0.000000000000000e+00,
58,-2.247848101270049e-02,1.000000000000000e-04,-8.041644492744451e-06,1.408644216611658e-03,0.000000000000000e+00,0.000000000000000e+00,0.000000000000000e+00,0.000000000000000e+00,
59,-2.161392405067188e-02,1.000000000000000e-04,-7.701037812411737e-06,1.416655894971948e-03,0.000000000000000e+00,0.000000000000000e+00,0.000000000000000e+00,0.000000000000000e+00,
60,-2.074936708864328e-02,1.000000000000000e-04,-7.357524314697487e-06,1.424096069066382e-03,0.000000000000000e+00,0.000000000000000e+00,0.000000000000000e+00,0.000000000000000e+00,
61,-1.988481012661467e-02,1.000000000000000e-04,-7.011536206877532e-06,1.430970192245336e-03,0.000000000000000e+00,0.000000000000000e+00,0.000000000000000e+00,0.000000000000000e+00,
62,-1.902025316458605e-02,1.000000000000000e-04,-6.663498712996633e-06,1.437283699799989e-03,0.000000000000000e+00,0.000000000000000e+00,0.000000000000000e+00,0.000000000000000e+00,
63,-1.815569620255744e-02,1.000000000000000e-04,-6.313815559696871e-06,1.443042292568454e-03,0.000000000000000e+00,0.000000000000000e+00,0.000000000000000e+00,0.000000000000000e+00,
64,-1.729113924052884e-02,1.000000000000000e-04,-5.962845977662366e-06,1.448251437333617e-03,0.000000000000000e+00,0.000000000000000e+00,0.000000000000000e+00,0.000000000000000e+00,
65,-1.642658227850187e-02,1.000000000000000e-04,-5.610948552704735e-06,1.452916493239736e-03,0.000000000000000e+00,0.000000000000000e+00,0.000000000000000e+00,0.000000000000000e+00,
66,-1.556202531647546e-02,1.000000000000000e-04,-5.258455910139505e-06,1.457042627106319e-03,0.000000000000000e+00,0.000000000000000e+00,0.000000000000000e+00,0.000000000000000e+00,
67,-1.469746835444904e-02,1.000000000000000e-04,-4.905703873051823e-06,1.460634827388500e-03,0.000000000000000e+00,0.000000000000000e+00,0.000000000000000e+00,0.000000000000000e+00,
68,-1.383291139242263e-02,1.000000000000000e-04,-4.553054424786882e-06,1.463698091510684e-03,0.000000000000000e+00,0.000000000000000e+00,0.000000000000000e+00,0.000000000000000e+00,
69,-1.296835443039621e-02,1.000000000000000e-04,-4.200834890683990e-06,1.466237566487198e-03,0.000000000000000e+00,0.000000000000000e+00,0.000000000000000e+00,0.000000000000000e+00,
70,-1.210379746836981e-02,1.000000000000000e-04,-3.849350803514123e-06,1.468258121454876e-03,0.000000000000000e+00,0.000000000000000e+00,0.000000000000000e+00,0.000000000000000e+00,
71,-1.123924050634338e-02,1.000000000000000e-04,-3.498903373440803e-06,1.469764569916076e-03,0.000000000000000e+00,0.000000000000000e+00,0.000000000000000e+00,0.000000000000000e+00,
72,-1.037468354431697e-02,1.000000000000000e-04,-3.149788859784681e-06,1.470761516496459e-03,0.000000000000000e+00,0.000000000000000e+00,0.000000000000000e+00,0.000000000000000e+00,
73,-9.510126582290550e-03,1.000000000000000e-04,-2.802343300467573e-06,1.471253676993284e-03,0.000000000000000e+00,0.000000000000000e+00,0.000000000000000e+00,0.000000000000000e+00,
74,-8.645569620264144e-03,1.000000000000000e-04,-2.456874954712000e-06,1.471246031132294e-03,0.000000000000000e+00,0.000000000000000e+00,0.000000000000000e+00,0.000000000000000e+00,
75,-7.781012658237732e-03,1.000000000000000e-04,-2.113650451192756e-06,1.470743472763932e-03,0.000000000000000e+00,0.000000000000000e+00,0.000000000000000e+00,0.000000000000000e+00,
76,-6.916455696211313e-03,1.000000000000000e-04,-1.772919705329686e-06,1.469750773995162e-03,0.000000000000000e+00,0.000000000000000e+00,0.000000000000000e+00,0.000000000000000e+00,
77,-6.051898734184900e-03,1.000000000000000e-04,-1.434930136167145e-06,1.468272510314062e-03,0.000000000000000e+00,0.000000000000000e+00,0.000000000000000e+00,0.000000000000000e+00,
78,-5.187341772158474e-03,1.000000000000000e-04,-1.099914683777682e-06,1.466313188322450e-03,0.000000000000000e+00,0.000000000000000e+00,0.000000000000000e+00,0.000000000000000e+00,
79,-4.322784810132069e-03,1.000000000000000e-04,-7.681030313308244e-07,1.463877043119871e-03,0.000000000000000e+00,0.000000000000000e+00,0.000000000000000e+00,0.000000000000000e+00,
80,-3.458227848105663e-03,1.000000000000000e-04,-4.397301427070472e-07,1.460968260863920e-03,0.000000000000000e+00,0.000000000000000e+00,0.000000000000000e+00,0.000000000000000e+00,
81,-2.593670886079244e-03,1.000000000000000e-04,-1.150280784263408e-07,1.457590928090021e-03,0.000000000000000e+00,0.000000000000000e+00,0.000000000000000e+00,0.000000000000000e+00,
82,-1.729113924052825e-03,1.000000000000000e-04,2.057474530085752e-07,1.453749224132762e-03,0.000000000000000e+00,0.000000000000000e+00,0.000000000000000e+00,0.000000000000000e+00,
83,-8.645569620264193e-04,1.000000000000000e-04,5.223770105493616e-07,1.449447489586598e-03,0.000000000000000e+00,0.000000000000000e+00,0.000000000000000e+00,0.000000000000000e+00,
84,8.645569620226498e-04,1.000000000000000e-04,1.142396462670204e-06,1.439480228437228e-03,0.000000000000000e+00,0.000000000000000e+00,0.000000000000000e+00,0.000000000000000e+00,
85,1.729113924045300e-03,1.000000000000000e-04,1.445348233603892e-06,1.433822805891970e-03,0.000000000000000e+00,0.000000000000000e+00,0.000000000000000e+00,0.000000000000000e+00,
86,2.593670886067950e-03,1.000000000000000e-04,1.743316369584780e-06,1.427721618115863e-03,0.000000000000000e+00,0.000000000000000e+00,0.000000000000000e+00,0.000000000000000e+00,
87,3.458227848090599e-03,1.000000000000000e-04,2.036102221204352e-06,1.421180837308125e-03,0.000000000000000e+00,0.000000000000000e+00,0.000000000000000e+00,0.000000000000000e+00,
88,4.322784810113249e-03,1.000000000000000e-04,2.323542471010778e-06,1.414204535199727e-03,0.000000000000000e+00,0.000000000000000e+00,0.000000000000000e+00,0.000000000000000e+00,
89,5.187341772135899e-03,1.000000000000000e-04,2.605482759401879e-06,1.406796566015708e-03,0.000000000000000e+00,0.000000000000000e+00,0.000000000000000e+00,0.000000000000000e+00,
90,6.051898734158549e-03,1.000000000000000e-04,2.881760305132584e-06,1.398960640704384e-03,0.000000000000000e+00,0.000000000000000e+00,0.000000000000000e+00,0.000000000000000e+00,
91,6.916455696181199e-03,1.000000000000000e-04,3.152194426430371e-06,1.390700436904090e-03,0.000000000000000e+00,0.000000000000000e+00,0.000000000000000e+00,0.000000000000000e+00,
92,7.781012658203849e-03,1.000000000000000e-04,3.416613801601681e-06,1.382019762219182e-03,0.000000000000000e+00,0.000000000000000e+00,0.000000000000000e+00,0.000000000000000e+00,
93,8.645569620226497e-03,1.000000000000000e-04,3.674860650933343e-06,1.372922406423427e-03,0.000000000000000e+00,0.000000000000000e+00,0.000000000000000e+00,0.000000000000000e+00,
94,9.510126582249149e-03,1.000000000000000e-04,3.926785262958672e-06,1.363412174467473e-03,0.000000000000000e+00,0.000000000000000e+00,0.000000000000000e+00,0.000000000000000e+00,
95,1.037468354427180e-02,1.000000000000000e-04,4.172218894170212e-06,1.353492839015560e-03,0.000000000000000e+00,0.000000000000000e+00,0.000000000000000e+00,0.000000000000000e+00,
96,1.123924050629445e-02,1.000000000000000e-04,4.410980400911118e-06,1.343168457600422e-03,0.000000000000000e+00,0.000000000000000e+00,0.000000000000000e+00,0.000000000000000e+00,
97,1.210379746831710e-02,1.000000000000000e-04,4.642939248964951e-06,1.332443206946387e-03,0.000000000000000e+00,0.000000000000000e+00,0.000000000000000e+00,0.000000000000000e+00,
98,1.296835443033975e-02,1.000000000000000e-04,4.867980130235132e-06,1.321321083841332e-03,0.000000000000000e+00,0.000000000000000e+00,0.000000000000000e+00,0.000000000000000e+00,
99,1.383291139236240e-02,1.000000000000000e-04,5.085979735325816e-06,1.309806036509520e-03,0.000000000000000e+00,0.000000000000000e+00,0.000000000000000e+00,0.000000000000000e+00,
100,1.469746835438505e-02,1.000000000000000e-04,5.296792165337797e-06,1.297902027280085e-03,0.000000000000000e+00,0.000000000000000e+00,0.000000000000000e+00,0.000000000000000e+00,
101,1.556202531640770e-02,1.000000000000000e-04,5.500286481354554e-06,1.285613304447410e-03,0.000000000000000e+00,0.000000000000000e+00,0.000000000000000e+00,0.000000000000000e+00,
102,1.642658227843035e-02,1.000000000000000e-04,5.696380296022142e-06,1.272944048175424e-03,0.000000000000000e+00,0.000000000000000e+00,0.000000000000000e+00,0.000000000000000e+00,
103,1.729113924045334e-02,1.000000000000000e-04,5.884986407696827e-06,1.259898268278037e-03,0.000000000000000e+00,0.000000000000000e+00,0.000000000000000e+00,0.000000000000000e+00,
104,1.815569620247735e-02,1.000000000000000e-04,6.066010355925186e-06,1.246479919194962e-03,0.000000000000000e+00,0.000000000000000e+00,0.000000000000000e+00,0.000000000000000e+00,
105,1.902025316450135e-02,1.000000000000000e-04,6.239356988995148e-06,1.232692918164228e-03,0.000000000000000e+00,0.000000000000000e+00,0.000000000000000e+00,0.000000000000000e+00,
106,1.988481012652537e-02,1.000000000000000e-04,6.404905018087064e-06,1.218541253487999e-03,0.000000000000000e+00,0.000000000000000e+00,0.000000000000000e+00,0.000000000000000e+00,
107,2.074936708854937e-02,1.000000000000000e-04,6.562556863461282e-06,1.204029195069529e-03,0.000000000000000e+00,0.000000000000000e+00,0.000000000000000e+00,0.000000000000000e+00,
108,2.161392405057339e-02,1.000000000000000e-04,6.712242404853169e-06,1.189160952758967e-03,0.000000000000000e+00,0.000000000000000e+00,0.000000000000000e+00,0.000000000000000e+00,
109,2.247848101259740e-02,1.000000000000000e-04,6.853908205607418e-06,1.173940696260321e-03,0.000000000000000e+00,0.000000000000000e+00,0.000000000000000e+00,0.000000000000000e+00,
110,2.334303797462140e-02,1.000000000000000e-04,6.987488976515139e-06,1.158372359322799e-03,0.000000000000000e+00,0.000000000000000e+00,0.000000000000000e+00,0.000000000000000e+00,
111,2.420759493664541e-02,1.000000000000000e-04,7.112912024480877e-06,1.142459979452778e-03,0.000000000000000e+00,0.000000000000000e+00,0.000000000000000e+00,0.000000000000000e+00,
112,2.507215189866942e-02,1.000000000000000e-04,7.230106149226131e-06,1.126207592557034e-03,0.000000000000000e+00,0.000000000000000e+00,0.000000000000000e+00,0.000000000000000e+00,
113,2.593670886069343e-02,1.000000000000000e-04,7.339016435096042e-06,1.109619414196550e-03,0.000000000000000e+00,0.000000000000000e+00,0.000000000000000e+00,0.000000000000000e+00,
114,2.680126582271744e-02,1.000000000000000e-04,7.439595026134164e-06,1.092699551853038e-03,0.000000000000000e+00,0.000000000000000e+00,0.000000000000000e+00,0.000000000000000e+00,
115,2.766582278474145e-02,1.000000000000000e-04,7.531796095753579e-06,1.075452224057108e-03,0.000000000000000e+00,0.000000000000000e+00,0.000000000000000e+00,0.000000000000000e+00,
116,2.853037974676546e-02,1.000000000000000e-04,7.615598820896492e-06,1.057881515225405e-03,0.000000000000000e+00,0.000000000000000e+00,0.000000000000000e+00,0.000000000000000e+00,
117,2.939493670878947e-02,1.000000000000000e-04,7.690985495411219e-06,1.039991361255820e-03,0.000000000000000e+00,0.000000000000000e+00,0.000000000000000e+00,0.000000000000000e+00,
118,3.025949367081348e-02,1.000000000000000e-04,7.757891507211673e-06,1.021785646345094e-03,0.000000000000000e+00,0.000000000000000e+00,0.000000000000000e+00,0.000000000000000e+00,
119,3.112405063283749e-02,1.000000000000000e-04,7.816258452263689e-06,1.003268702662696e-03,0.000000000000000e+00,0.000000000000000e+00,0.000000000000000e+00,0.000000000000000e+00,
120,3.198860759486150e-02,1.000000000000000e-04,7.866087693203221e-06,9.844448576783714e-04,0.000000000000000e+00,0.000000000000000e+00,0.000000000000000e+00,0.000000000000000e+00,
121,3.285316455688551e-02,1.000000000000000e-04,7.907385556354542e-06,9.653182585052342e-04,0.000000000000000e+00,0.000000000000000e+00,0.000000000000000e+00,0.000000000000000e+00,
122,3.371772151890952e-02,1.000000000000000e-04,7.940152290428981e-06,9.458928827967682e-04,0.000000000000000e+00,0.000000000000000e+00,0.000000000000000e+00,0.000000000000000e+00,
123,3.458227848093572e-02,1.000000000000000e-04,7.964366105750767e-06,9.261726378673339e-04,0.000000000000000e+00,0.000000000000000e+00,0.000000000000000e+00,0.000000000000000e+00,
124,3.544683544296412e-02,1.000000000000000e-04,7.980006770269956e-06,9.061615616781808e-04,0.000000000000000e+00,0.000000000000000e+00,0.000000000000000e+00,0.000000000000000e+00,
125,3.631139240499252e-02,1.000000000000000e-04,7.987071973472887e-06,8.858637298860958e-04,0.000000000000000e+00,0.000000000000000e+00,0.000000000000000e+00,0.000000000000000e+00,
126,3.717594936702093e-02,1.000000000000000e-04,7.985533567946976e-06,8.652832991050409e-04,0.000000000000000e+00,0.000000000000000e+00,0.000000000000000e+00,0.000000000000000e+00,
127,3.804050632904932e-02,1.000000000000000e-04,7.975413093624387e-06,8.444246755062931e-04,0.000000000000000e+00,0.000000000000000e+00,0.000000000000000e+00,0.000000000000000e+00,
128,3.890506329107773e-02,1.000000000000000e-04,7.956747966848504e-06,8.232919254513352e-04,0.000000000000000e+00,0.000000000000000e+00,0.000000000000000e+00,0.000000000000000e+00,
129,3.976962025310612e-02,1.000000000000000e-04,7.929524634018398e-06,8.018892031995492e-04,0.000000000000000e+00,0.000000000000000e+00,0.000000000000000e+00,0.000000000000000e+00,
130,4.063417721513453e-02,1.000000000000000e-04,7.893741503138232e-06,7.802208899053009e-04,0.000000000000000e+00,0.000000000000000e+00,0.000000000000000e+00,0.000000000000000e+00,
131,4.149873417716293e-02,1.000000000000000e-04,7.849429170703698e-06,7.582914675494602e-04,0.000000000000000e+00,0.000000000000000e+00,0.000000000000000e+00,0.000000000000000e+00,
132,4.236329113919133e-02,1.000000000000000e-04,7.796637674074761e-06,7.361053009723042e-04,0.000000000000000e+00,0.000000000000000e+00,0.000000000000000e+00,0.000000000000000e+00,
133,4.322784810121974e-02,1.000000000000000e-04,7.735416235826884e-06,7.136665946162357e-04,0.000000000000000e+00,0.000000000000000e+00,0.000000000000000e+00,0.000000000000000e+00,
134,4.409240506324814e-02,1.000000000000000e-04,7.665771188189692e-06,6.909795324861944e-04,0.000000000000000e+00,0.000000000000000e+00,0.000000000000000e+00,0.000000000000000e+00,
135,4.495696202527653e-02,1.000000000000000e-04,7.587720573078378e-06,6.680486965920595e-04,0.000000000000000e+00,0.000000000000000e+00,0.000000000000000e+00,0.000000000000000e+00,
136,4.582151898730494e-02,1.000000000000000e-04,7.501324010526949e-06,6.448787102654601e-04,0.000000000000000e+00,0.000000000000000e+00,0.000000000000000e+00,0.000000000000000e+00,
137,4.668607594933333e-02,1.000000000000000e-04,7.406649485097804e-06,6.214741453196993e-04,0.000000000000000e+00,0.000000000000000e+00,0.000000000000000e+00,0.000000000000000e+00,
138,4.755063291136175e-02,1.000000000000000e-04,7.303748155153292e-06,5.978394752914676e-04,0.000000000000000e+00,0.000000000000000e+00,0.000000000000000e+00,0.000000000000000e+00,
139,4.841518987339014e-02,1.000000000000000e-04,7.192681026384157e-06,5.739792965743127e-04,0.000000000000000e+00,0.000000000000000e+00,0.000000000000000e+00,0.000000000000000e+00,
140,4.927974683541853e-02,1.000000000000000e-04,7.073511538750891e-06,5.498981109075688e-04,0.000000000000000e+00,0.000000000000000e+00,0.000000000000000e+00,0.000000000000000e+00,
141,5.014430379744695e-02,1.000000000000000e-04,6.946293614463532e-06,5.256005469872886e-04,0.000000000000000e+00,0.000000000000000e+00,0.000000000000000e+00,0.000000000000000e+00,
142,5.100886075947534e-02,1.000000000000000e-04,6.811092194674405e-06,5.010913077045716e-04,0.000000000000000e+00,0.000000000000000e+00,0.000000000000000e+00,0.000000000000000e+00,
143,5.187341772150210e-02,1.000000000000000e-04,6.667967325809921e-06,4.763752119670855e-04,0.000000000000000e+00,0.000000000000000e+00,0.000000000000000e+00,0.000000000000000e+00,
144,5.273797468352830e-02,1.000000000000000e-04,6.517009441911637e-06,4.514571904942816e-04,0.000000000000000e+00,0.000000000000000e+00,0.000000000000000e+00,0.000000000000000e+00,
145,5.360253164555451e-02,1.000000000000000e-04,6.358332821155526e-06,4.263420215750980e-04,0.000000000000000e+00,0.000000000000000e+00,0.000000000000000e+00,0.000000000000000e+00,
146,5.446708860758072e-02,1.000000000000000e-04,6.192031289132432e-06,4.010343385792149e-04,0.000000000000000e+00,0.000000000000000e+00,0.000000000000000e+00,0.000000000000000e+00,
147,5.533164556960692e-02,1.000000000000000e-04,6.018180720868762e-06,3.755388264851550e-04,0.000000000000000e+00,0.000000000000000e+00,0.000000000000000e+00,0.000000000000000e+00,
148,5.619620253163312e-02,1.000000000000000e-04,5.836884793150480e-06,3.498602550058202e-04,0.000000000000000e+00,0.000000000000000e+00,0.000000000000000e+00,0.000000000000000e+00,
149,5.706075949365933e-02,1.000000000000000e-04,5.648236899687065e-06,3.240032924714785e-04,0.000000000000000e+00,0.000000000000000e+00,0.000000000000000e+00,0.000000000000000e+00,
150,5.792531645568553e-02,1.000000000000000e-04,5.452297597496664e-06,2.979728525680077e-04,0.000000000000000e+00,0.000000000000000e+00,0.000000000000000e+00,0.000000000000000e+00,
151,5.878987341771175e-02,1.000000000000000e-04,5.249184653318886e-06,2.717741140653279e-04,0.000000000000000e+00,0.000000000000000e+00,0.000000000000000e+00,0.000000000000000e+00,
152,5.965443037973795e-02,1.000000000000000e-04,5.038993598430640e-06,2.454121318010507e-04,0.000000000000000e+00,0.000000000000000e+00,0.000000000000000e+00,0.000000000000000e+00,
153,6.051898734176415e-02,1.000000000000000e-04,4.821762343254370e-06,2.188925670386847e-04,0.000000000000000e+00,0.000000000000000e+00,0.000000000000000e+00,0.000000000000000e+00,
154,6.138354430379036e-02,1.000000000000000e-04,4.597467664389697e-06,1.922222074076908e-04,0.000000000000000e+00,0.000000000000000e+00,0.000000000000000e+00,0.000000000000000e+00,
155,6.224810126581656e-02,1.000000000000000e-04,4.365874622487045e-06,1.654106576209286e-04,0.000000000000000e+00,0.000000000000000e+00,0.000000000000000e+00,0.000000000000000e+00,
156,6.311265822784276e-02,1.000000000000000e-04,4.126155339454791e-06,1.384749337602929e-04,0.000000000000000e+00,0.000000000000000e+00,0.000000000000000e+00,0.000000000000000e+00,
157,6.397721518986897e-02,1.000000000000000e-04,3.874976696180491e-06,1.114540331127145e-04,0.000000000000000e+00,0.000000000000000e+00,0.000000000000000e+00,0.000000000000000e+00,
158,6.484177215189517e-02,1.000000000000000e-04,3.604217546473322e-06,8.445523261113808e-05,0.000000000000000e+00,0.000000000000000e+00,0.000000000000000e+00,0.000000000000000e+00,
159,6.570632911392138e-02,1.000000000000000e-04,3.283709557669675e-06,5.776842224349736e-05,0.000000000000000e+00,0.000000000000000e+00,0.000000000000000e+00,0.000000000000000e+00,
160,6.657088607594758e-02,1.000000000000000e-04,2.841396368251548e-06,3.229048771126178e-05,0.000000000000000e+00,0.000000000000000e+00,0.000000000000000e+00,0.000000000000000e+00,
161,6.743544303797379e-02,1.000000000000000e-04,2.009585380728432e-06,1.040458122587280e-05,0.000000000000000e+00,0.000000000000000e+00,0.000000000000000e+00,0.000000000000000e+00,
162,6.743544303797798e-02,-1.000000000000000e-04,-2.185634316192210e-06,1.110348077460493e-05,0.000000000000000e+00,0.000000000000000e+00,0.000000000000000e+00,0.000000000000000e+00,
163,6.657088607595596e-02,-1.000000000000000e-04,-2.766945445513176e-06,3.285961018913250e-05,0.000000000000000e+00,0.000000000000000e+00,0.000000000000000e+00,0.000000000000000e+00,
164,6.570632911393393e-02,-1.000000000000000e-04,-2.786618682527703e-06,5.839398412812573e-05,0.000000000000000e+00,0.000000000000000e+00,0.000000000000000e+00,0.000000000000000e+00,
165,6.484177215191191e-02,-1.000000000000000e-04,-2.605301445840119e-06,8.507433129841522e-05,0.000000000000000e+00,0.000000000000000e+00,0.000000000000000e+00,0.000000000000000e+00,
166,6.397721518988989e-02,-1.000000000000000e-04,-2.361871549774406e-06,1.120766608526680e-04,0.000000000000000e+00,0.000000000000000e+00,0.000000000000000e+00,0.000000000000000e+00,
167,6.311265822786787e-02,-1.000000000000000e-04,-2.099293212942752e-06,1.390965602768785e-04,0.000000000000000e+00,0.000000000000000e+00,0.000000000000000e+00,0.000000000000000e+00,
168,6.224810126584584e-02,-1.000000000000000e-04,-1.834078546975452e-06,1.660316479089687e-04,0.000000000000000e+00,0.000000000000000e+00,0.000000000000000e+00,0.000000000000000e+00,
169,6.138354430382382e-02,-1.000000000000000e-04,-1.571399166195004e-06,1.928422008725222e-04,0.000000000000000e+00,0.000000000000000e+00,0.000000000000000e+00,0.000000000000000e+00,
170,6.051898734180180e-02,-1.000000000000000e-04,-1.313260501746538e-06,2.195115307330426e-04,0.000000000000000e+00,0.000000000000000e+00,0.000000000000000e+00,0.000000000000000e+00,
171,5.965443037977977e-02,-1.000000000000000e-04,-1.060381988012813e-06,2.460300035179973e-04,0.000000000000000e+00,0.000000000000000e+00,0.000000000000000e+00,0.000000000000000e+00,
172,5.878987341775775e-02,-1.000000000000000e-04,-8.131436804912495e-07,2.723908609177723e-04,0.000000000000000e+00,0.000000000000000e+00,0.000000000000000e+00,0.000000000000000e+00,
173,5.792531645573573e-02,-1.000000000000000e-04,-5.717712170780660e-07,2.985884425293120e-04,0.000000000000000e+00,0.000000000000000e+00,0.000000000000000e+00,0.000000000000000e+00,
174,5.706075949371370e-02,-1.000000000000000e-04,-3.363990935537919e-07,3.246176997199964e-04,0.000000000000000e+00,0.000000000000000e+00,0.000000000000000e+00,0.000000000000000e+00,
175,5.619620253169168e-02,-1.000000000000000e-04,-1.071408836320964e-07,3.504734514300775e-04,0.000000000000000e+00,0.000000000000000e+00,0.000000000000000e+00,0.000000000000000e+00,
176,5.533164556966966e-02,-1.000000000000000e-04,1.158579539331480e-07,3.761507857827319e-04,0.000000000000000e+00,0.000000000000000e+00,0.000000000000000e+00,0.000000000000000e+00,
177,5.446708860764764e-02,-1.000000000000000e-04,3.324971258689625e-07,4.016450409326863e-04,0.000000000000000e+00,0.000000000000000e+00,0.000000000000000e+00,0.000000000000000e+00,
178,5.360253164562562e-02,-1.000000000000000e-04,5.426836779853474e-07,4.269514422854376e-04,0.000000000000000e+00,0.000000000000000e+00,0.000000000000000e+00,0.000000000000000e+00,
179,5.273797468360359e-02,-1.000000000000000e-04,7.463135630278693e-07,4.520653077774441e-04,0.000000000000000e+00,0.000000000000000e+00,0.000000000000000e+00,0.000000000000000e+00,
180,5.187341772158157e-02,-1.000000000000000e-04,9.433047144955101e-07,4.769820055177373e-04,0.000000000000000e+00,0.000000000000000e+00,0.000000000000000e+00,0.000000000000000e+00,
181,5.100886075955900e-02,-1.000000000000000e-04,1.133589046395359e-06,5.016967574521915e-04,0.000000000000000e+00,0.000000000000000e+00,0.000000000000000e+00,0.000000000000000e+00,
182,5.014430379753478e-02,-1.000000000000000e-04,1.317080227138184e-06,5.262046307432242e-04,0.000000000000000e+00,0.000000000000000e+00,0.000000000000000e+00,0.000000000000000e+00,
183,4.927974683551056e-02,-1.000000000000000e-04,1.493682615328900e-06,5.505008085718126e-04,0.000000000000000e+00,0.000000000000000e+00,0.000000000000000e+00,0.000000000000000e+00,
184,4.841518987348634e-02,-1.000000000000000e-04,1.663314585338362e-06,5.745805923521147e-04,0.000000000000000e+00,0.000000000000000e+00,0.000000000000000e+00,0.000000000000000e+00,
185,4.755063291146212e-02,-1.000000000000000e-04,1.825892036448881e-06,5.984393512129190e-04,0.000000000000000e+00,0.000000000000000e+00,0.000000000000000e+00,0.000000000000000e+00,
186,4.668607594943790e-02,-1.000000000000000e-04,1.981353514938734e-06,6.220725876642263e-04,0.000000000000000e+00,0.000000000000000e+00,0.000000000000000e+00,0.000000000000000e+00,
187,4.582151898741368e-02,-1.000000000000000e-04,2.129634913862802e-06,6.454757035319094e-04,0.000000000000000e+00,0.000000000000000e+00,0.000000000000000e+00,0.000000000000000e+00,
188,4.495696202538947e-02,-1.000000000000000e-04,2.270676176228956e-06,6.686442281499318e-04,0.000000000000000e+00,0.000000000000000e+00,0.000000000000000e+00,0.000000000000000e+00,
189,4.409240506336524e-02,-1.000000000000000e-04,2.404433937221629e-06,6.915735884490650e-04,0.000000000000000e+00,0.000000000000000e+00,0.000000000000000e+00,0.000000000000000e+00,
190,4.322784810134103e-02,-1.000000000000000e-04,2.530858665544145e-06,7.142591638470828e-04,0.000000000000000e+00,0.000000000000000e+00,0.000000000000000e+00,0.000000000000000e+00,
191,4.236329113931681e-02,-1.000000000000000e-04,2.649869414654219e-06,7.366963724994589e-04,0.000000000000000e+00,0.000000000000000e+00,0.000000000000000e+00,0.000000000000000e+00,
192,4.149873417729259e-02,-1.000000000000000e-04,2.761403429424182e-06,7.588810341463276e-04,0.000000000000000e+00,0.000000000000000e+00,0.000000000000000e+00,0.000000000000000e+00,
193,4.063417721526837e-02,-1.000000000000000e-04,2.865446045869813e-06,7.808089441816489e-04,0.000000000000000e+00,0.000000000000000e+00,0.000000000000000e+00,0.000000000000000e+00,
194,3.976962025324415e-02,-1.000000000000000e-04,2.961984650873381e-06,8.024757372372787e-04,0.000000000000000e+00,0.000000000000000e+00,0.000000000000000e+00,0.000000000000000e+00,
195,3.890506329121993e-02,-1.000000000000000e-04,3.050992724674085e-06,8.238769328754141e-04,0.000000000000000e+00,0.000000000000000e+00,0.000000000000000e+00,0.000000000000000e+00,
196,3.804050632919571e-02,-1.000000000000000e-04,3.132428002492722e-06,8.450081496084293e-04,0.000000000000000e+00,0.000000000000000e+00,0.000000000000000e+00,0.000000000000000e+00,
197,3.717594936717150e-02,-1.000000000000000e-04,3.206250167576368e-06,8.658652381040393e-04,0.000000000000000e+00,0.000000000000000e+00,0.000000000000000e+00,0.000000000000000e+00,
198,3.631139240514728e-02,-1.000000000000000e-04,3.272472728683706e-06,8.864441329923349e-04,0.000000000000000e+00,0.000000000000000e+00,0.000000000000000e+00,0.000000000000000e+00,
199,3.544683544312306e-02,-1.000000000000000e-04,3.331090382265984e-06,9.067404240417791e-04,0.000000000000000e+00,0.000000000000000e+00,0.000000000000000e+00,0.000000000000000e+00,
200,3.458227848109884e-02,-1.000000000000000e-04,3.382072552843606e-06,9.267499600474521e-04,0.000000000000000e+00,0.000000000000000e+00,0.000000000000000e+00,0.000000000000000e+00,
201,3.371772151907242e-02,-1.000000000000000e-04,3.425420879737762e-06,9.464686668894324e-04,0.000000000000000e+00,0.000000000000000e+00,0.000000000000000e+00,0.000000000000000e+00,
202,3.285316455704381e-02,-1.000000000000000e-04,3.461130368780184e-06,9.658925058744880e-04,0.000000000000000e+00,0.000000000000000e+00,0.000000000000000e+00,0.000000000000000e+00,
203,3.198860759501521e-02,-1.000000000000000e-04,3.489210915434060e-06,9.850175718881637e-04,0.000000000000000e+00,0.000000000000000e+00,0.000000000000000e+00,0.000000000000000e+00,
204,3.112405063298660e-02,-1.000000000000000e-04,3.509695386866679e-06,1.003839887877011e-03,0.000000000000000e+00,0.000000000000000e+00,0.000000000000000e+00,0.000000000000000e+00,
205,3.025949367095799e-02,-1.000000000000000e-04,3.522620303161928e-06,1.022355307090117e-03,0.000000000000000e+00,0.000000000000000e+00,0.000000000000000e+00,0.000000000000000e+00,
206,2.939493670892938e-02,-1.000000000000000e-04,3.528020800310316e-06,1.040559501880908e-03,0.000000000000000e+00,0.000000000000000e+00,0.000000000000000e+00,0.000000000000000e+00,
207,2.853037974690077e-02,-1.000000000000000e-04,3.525885954097640e-06,1.058448140571474e-03,0.000000000000000e+00,0.000000000000000e+00,0.000000000000000e+00,0.000000000000000e+00,
208,2.766582278487216e-02,-1.000000000000000e-04,3.516221754434822e-06,1.076017345324419e-03,0.000000000000000e+00,0.000000000000000e+00,0.000000000000000e+00,0.000000000000000e+00,
209,2.680126582284355e-02,-1.000000000000000e-04,3.499083875782485e-06,1.093263177758951e-03,0.000000000000000e+00,0.000000000000000e+00,0.000000000000000e+00,0.000000000000000e+00,
210,2.593670886081494e-02,-1.000000000000000e-04,3.474532561262068e-06,1.110181553909543e-03,0.000000000000000e+00,0.000000000000000e+00,0.000000000000000e+00,0.000000000000000e+00,
211,2.507215189878632e-02,-1.000000000000000e-04,3.442608151471908e-06,1.126768256860647e-03,0.000000000000000e+00,0.000000000000000e+00,0.000000000000000e+00,0.000000000000000e+00,
212,2.420759493675772e-02,-1.000000000000000e-04,3.403360901185792e-06,1.143019180480923e-03,0.000000000000000e+00,0.000000000000000e+00,0.000000000000000e+00,0.000000000000000e+00,
213,2.334303797472911e-02,-1.000000000000000e-04,3.356838577110895e-06,1.158930109565566e-03,0.000000000000000e+00,0.000000000000000e+00,0.000000000000000e+00,0.000000000000000e+00,
214,2.247848101270049e-02,-1.000000000000000e-04,3.303087868164939e-06,1.174497011702506e-03,0.000000000000000e+00,0.000000000000000e+00,0.000000000000000e+00,0.000000000000000e+00,
215,2.161392405067188e-02,-1.000000000000000e-04,3.242166347448088e-06,1.189715848246152e-03,0.000000000000000e+00,0.000000000000000e+00,0.000000000000000e+00,0.000000000000000e+00,
216,2.074936708864328e-02,-1.000000000000000e-04,3.174155743836144e-06,1.204582687327766e-03,0.000000000000000e+00,0.000000000000000e+00,0.000000000000000e+00,0.000000000000000e+00,
217,1.988481012661467e-02,-1.000000000000000e-04,3.099148697882763e-06,1.219093360407899e-03,0.000000000000000e+00,0.000000000000000e+00,0.000000000000000e+00,0.000000000000000e+00,
218,1.902025316458605e-02,-1.000000000000000e-04,3.017229518936436e-06,1.233243658151410e-03,0.000000000000000e+00,0.000000000000000e+00,0.000000000000000e+00,0.000000000000000e+00,
219,1.815569620255744e-02,-1.000000000000000e-04,2.928467615110663e-06,1.247029312084541e-03,0.000000000000000e+00,0.000000000000000e+00,0.000000000000000e+00,0.000000000000000e+00,
220,1.729113924052884e-02,-1.000000000000000e-04,2.832930652037711e-06,1.260446334558200e-03,0.000000000000000e+00,0.000000000000000e+00,0.000000000000000e+00,0.000000000000000e+00,
221,1.642658227850187e-02,-1.000000000000000e-04,2.730718437964769e-06,1.273490812917089e-03,0.000000000000000e+00,0.000000000000000e+00,0.000000000000000e+00,0.000000000000000e+00,
222,1.556202531647546e-02,-1.000000000000000e-04,2.621933872444998e-06,1.286158789939685e-03,0.000000000000000e+00,0.000000000000000e+00,0.000000000000000e+00,0.000000000000000e+00,
223,1.469746835444904e-02,-1.000000000000000e-04,2.506690547727601e-06,1.298446261144839e-03,0.000000000000000e+00,0.000000000000000e+00,0.000000000000000e+00,0.000000000000000e+00,
224,1.383291139242263e-02,-1.000000000000000e-04,2.385112848037490e-06,1.310349043803419e-03,0.000000000000000e+00,0.000000000000000e+00,0.000000000000000e+00,0.000000000000000e+00,
225,1.296835443039621e-02,-1.000000000000000e-04,2.257295562310444e-06,1.321862891507872e-03,0.000000000000000e+00,0.000000000000000e+00,0.000000000000000e+00,0.000000000000000e+00,
226,1.210379746836981e-02,-1.000000000000000e-04,2.123340782741328e-06,1.332983843676643e-03,0.000000000000000e+00,0.000000000000000e+00,0.000000000000000e+00,0.000000000000000e+00,
227,1.123924050634338e-02,-1.000000000000000e-04,1.983380109314730e-06,1.343707954861492e-03,0.000000000000000e+00,0.000000000000000e+00,0.000000000000000e+00,0.000000000000000e+00,
228,1.037468354431697e-02,-1.000000000000000e-04,1.837561517794504e-06,1.354031228660483e-03,0.000000000000000e+00,0.000000000000000e+00,0.000000000000000e+00,0.000000000000000e+00,
229,9.510126582290550e-03,-1.000000000000000e-04,1.686032496141350e-06,1.363949488041737e-03,0.000000000000000e+00,0.000000000000000e+00,0.000000000000000e+00,0.000000000000000e+00,
230,8.645569620264144e-03,-1.000000000000000e-04,1.528909515678201e-06,1.373458677177092e-03,0.000000000000000e+00,0.000000000000000e+00,0.000000000000000e+00,0.000000000000000e+00,
231,7.781012658237732e-03,-1.000000000000000e-04,1.366331708587448e-06,1.382555027367766e-03,0.000000000000000e+00,0.000000000000000e+00,0.000000000000000e+00,0.000000000000000e+00,
232,6.916455696211313e-03,-1.000000000000000e-04,1.198458084604360e-06,1.391234733820352e-03,0.000000000000000e+00,0.000000000000000e+00,0.000000000000000e+00,0.000000000000000e+00,
233,6.051898734184900e-03,-1.000000000000000e-04,1.025447944692201e-06,1.399494008070784e-03,0.000000000000000e+00,0.000000000000000e+00,0.000000000000000e+00,0.000000000000000e+00,
234,5.187341772158474e-03,-1.000000000000000e-04,8.474578240443369e-07,1.407329044421837e-03,0.000000000000000e+00,0.000000000000000e+00,0.000000000000000e+00,0.000000000000000e+00,
235,4.322784810132069e-03,-1.000000000000000e-04,6.646502261706331e-07,1.414736164227215e-03,0.000000000000000e+00,0.000000000000000e+00,0.000000000000000e+00,0.000000000000000e+00,
236,3.458227848105663e-03,-1.000000000000000e-04,4.772112032104547e-07,1.421711661383801e-03,0.000000000000000e+00,0.000000000000000e+00,0.000000000000000e+00,0.000000000000000e+00,
237,2.593670886079244e-03,-1.000000000000000e-04,2.853405751535967e-07,1.428251681156993e-03,0.000000000000000e+00,0.000000000000000e+00,0.000000000000000e+00,0.000000000000000e+00,
238,1.729113924052825e-03,-1.000000000000000e-04,8.924612339102008e-08,1.434352151189048e-03,0.000000000000000e+00,0.000000000000000e+00,0.000000000000000e+00,0.000000000000000e+00,
239,8.645569620264193e-04,-1.000000000000000e-04,-1.108827168359800e-07,1.440008902523865e-03,0.000000000000000e+00,0.000000000000000e+00,0.000000000000000e+00,0.000000000000000e+00,
240,-8.645569620226498e-04,-1.000000000000000e-04,-5.224410678081402e-07,1.449974964483768e-03,0.000000000000000e+00,0.000000000000000e+00,0.000000000000000e+00,0.000000000000000e+00,
241,-1.729113924045300e-03,-1.000000000000000e-04,-7.334486281460574e-07,1.454276173939434e-03,0.000000000000000e+00,0.000000000000000e+00,0.000000000000000e+00,0.000000000000000e+00,
242,-2.593670886067950e-03,-1.000000000000000e-04,-9.476227932261691e-07,1.458117405460349e-03,0.000000000000000e+00,0.000000000000000e+00,0.000000000000000e+00,0.000000000000000e+00,
243,-3.458227848090599e-03,-1.000000000000000e-04,-1.164732463331638e-06,1.461494318084810e-03,0.000000000000000e+00,0.000000000000000e+00,0.000000000000000e+00,0.000000000000000e+00,
244,-4.322784810113249e-03,-1.000000000000000e-04,-1.384568810751017e-06,1.464402735158141e-03,0.000000000000000e+00,0.000000000000000e+00,0.000000000000000e+00,0.000000000000000e+00,
245,-5.187341772135899e-03,-1.000000000000000e-04,-1.606891267842558e-06,1.466838572725030e-03,0.000000000000000e+00,0.000000000000000e+00,0.000000000000000e+00,0.000000000000000e+00,
246,-6.051898734158549e-03,-1.000000000000000e-04,-1.831450725868262e-06,1.468797645128771e-03,0.000000000000000e+00,0.000000000000000e+00,0.000000000000000e+00,0.000000000000000e+00,
247,-6.916455696181199e-03,-1.000000000000000e-04,-2.057977118250512e-06,1.470275717419014e-03,0.000000000000000e+00,0.000000000000000e+00,0.000000000000000e+00,0.000000000000000e+00,
248,-7.781012658203849e-03,-1.000000000000000e-04,-2.286195432502199e-06,1.471268288500088e-03,0.000000000000000e+00,0.000000000000000e+00,0.000000000000000e+00,0.000000000000000e+00,
249,-8.645569620226497e-03,-1.000000000000000e-04,-2.515832285477887e-06,1.471770780843739e-03,0.000000000000000e+00,0.000000000000000e+00,0.000000000000000e+00,0.000000000000000e+00,
250,-9.510126582249149e-03,-1.000000000000000e-04,-2.746597610662752e-06,1.471778427458059e-03,0.000000000000000e+00,0.000000000000000e+00,0.000000000000000e+00,0.000000000000000e+00,
251,-1.037468354427180e-02,-1.000000000000000e-04,-2.978193665853584e-06,1.471286333961825e-03,0.000000000000000e+00,0.000000000000000e+00,0.000000000000000e+00,0.000000000000000e+00,
252,-1.123924050629445e-02,-1.000000000000000e-04,-3.210335188665966e-06,1.470289521585365e-03,0.000000000000000e+00,0.000000000000000e+00,0.000000000000000e+00,0.000000000000000e+00,
253,-1.210379746831710e-02,-1.000000000000000e-04,-3.442748699410738e-06,1.468783278137192e-03,0.000000000000000e+00,0.000000000000000e+00,0.000000000000000e+00,0.000000000000000e+00,
254,-1.296835443033975e-02,-1.000000000000000e-04,-3.675114226657159e-06,1.466763001793291e-03,0.000000000000000e+00,0.000000000000000e+00,0.000000000000000e+00,0.000000000000000e+00,
255,-1.383291139236240e-02,-1.000000000000000e-04,-3.907101303794804e-06,1.464223880514960e-03,0.000000000000000e+00,0.000000000000000e+00,0.000000000000000e+00,0.000000000000000e+00,
256,-1.469746835438505e-02,-1.000000000000000e-04,-4.138360219934038e-06,1.461161044914305e-03,0.000000000000000e+00,0.000000000000000e+00,0.000000000000000e+00,0.000000000000000e+00,
257,-1.556202531640770e-02,-1.000000000000000e-04,-4.368543837089510e-06,1.457569354160308e-03,0.000000000000000e+00,0.000000000000000e+00,0.000000000000000e+00,0.000000000000000e+00,
258,-1.642658227843035e-02,-1.000000000000000e-04,-4.597326693331454e-06,1.453443807866692e-03,0.000000000000000e+00,0.000000000000000e+00,0.000000000000000e+00,0.000000000000000e+00,
259,-1.729113924045334e-02,-1.000000000000000e-04,-4.824347776077289e-06,1.448779427083284e-03,0.000000000000000e+00,0.000000000000000e+00,0.000000000000000e+00,0.000000000000000e+00,
260,-1.815569620247735e-02,-1.000000000000000e-04,-5.049224203418459e-06,1.443571040569818e-03,0.000000000000000e+00,0.000000000000000e+00,0.000000000000000e+00,0.000000000000000e+00,
261,-1.902025316450135e-02,-1.000000000000000e-04,-5.271570496446010e-06,1.437813296665787e-03,0.000000000000000e+00,0.000000000000000e+00,0.000000000000000e+00,0.000000000000000e+00,
262,-1.988481012652537e-02,-1.000000000000000e-04,-5.490974538330615e-06,1.431500726442615e-03,0.000000000000000e+00,0.000000000000000e+00,0.000000000000000e+00,0.000000000000000e+00,
263,-2.074936708854937e-02,-1.000000000000000e-04,-5.707041994246463e-06,1.424627636475527e-03,0.000000000000000e+00,0.000000000000000e+00,0.000000000000000e+00,0.000000000000000e+00,
264,-2.161392405057339e-02,-1.000000000000000e-04,-5.919381465580539e-06,1.417188589608861e-03,0.000000000000000e+00,0.000000000000000e+00,0.000000000000000e+00,0.000000000000000e+00,
265,-2.247848101259740e-02,-1.000000000000000e-04,-6.127583381205047e-06,1.409178137595281e-03,0.000000000000000e+00,0.000000000000000e+00,0.000000000000000e+00,0.000000000000000e+00,
266,-2.334303797462140e-02,-1.000000000000000e-04,-6.331198036739299e-06,1.400590972641107e-03,0.000000000000000e+00,0.000000000000000e+00,0.000000000000000e+00,0.000000000000000e+00,
267,-2.420759493664541e-02,-1.000000000000000e-04,-6.529735301985305e-06,1.391421310713555e-03,0.000000000000000e+00,0.000000000000000e+00,0.000000000000000e+00,0.000000000000000e+00,
268,-2.507215189866942e-02,-1.000000000000000e-04,-6.722712796294324e-06,1.381663117849622e-03,0.000000000000000e+00,0.000000000000000e+00,0.000000000000000e+00,0.000000000000000e+00,
269,-2.593670886069343e-02,-1.000000000000000e-04,-6.909688157367112e-06,1.371310175473977e-03,0.000000000000000e+00,0.000000000000000e+00,0.000000000000000e+00,0.000000000000000e+00,
270,-2.680126582271744e-02,-1.000000000000000e-04,-7.090220305917513e-06,1.360356786838586e-03,0.000000000000000e+00,0.000000000000000e+00,0.000000000000000e+00,0.000000000000000e+00,
271,-2.766582278474145e-02,-1.000000000000000e-04,-7.263826791742922e-06,1.348797271668414e-03,0.000000000000000e+00,0.000000000000000e+00,0.000000000000000e+00,0.000000000000000e+00,
272,-2.853037974676546e-02,-1.000000000000000e-04,-7.430019159432553e-06,1.336626135710210e-03,0.000000000000000e+00,0.000000000000000e+00,0.000000000000000e+00,0.000000000000000e+00,
273,-2.939493670878947e-02,-1.000000000000000e-04,-7.588268597377013e-06,1.323837738474524e-03,0.000000000000000e+00,0.000000000000000e+00,0.000000000000000e+00,0.000000000000000e+00,
274,-3.025949367081348e-02,-1.000000000000000e-04,-7.737975669683124e-06,1.310426064982889e-03,0.000000000000000e+00,0.000000000000000e+00,0.000000000000000e+00,0.000000000000000e+00,
275,-3.112405063283749e-02,-1.000000000000000e-04,-7.878554144893687e-06,1.296384334923481e-03,0.000000000000000e+00,0.000000000000000e+00,0.000000000000000e+00,0.000000000000000e+00,
276,-3.198860759486150e-02,-1.000000000000000e-04,-8.009468737676260e-06,1.281705992080649e-03,0.000000000000000e+00,0.000000000000000e+00,0.000000000000000e+00,0.000000000000000e+00,
277,-3.285316455688551e-02,-1.000000000000000e-04,-8.130125720850200e-06,1.266384506624040e-03,0.000000000000000e+00,0.000000000000000e+00,0.000000000000000e+00,0.000000000000000e+00,
278,-3.371772151890952e-02,-1.000000000000000e-04,-8.239928943174982e-06,1.250413236998617e-03,0.000000000000000e+00,0.000000000000000e+00,0.000000000000000e+00,0.000000000000000e+00,
279,-3.458227848093572e-02,-1.000000000000000e-04,-8.338256018990124e-06,1.233785589361640e-03,0.000000000000000e+00,0.000000000000000e+00,0.000000000000000e+00,0.000000000000000e+00,
280,-3.544683544296412e-02,-1.000000000000000e-04,-8.424420301058947e-06,1.216494685977887e-03,0.000000000000000e+00,0.000000000000000e+00,0.000000000000000e+00,0.000000000000000e+00,
281,-3.631139240499252e-02,-1.000000000000000e-04,-8.497726042171573e-06,1.198533189172102e-03,0.000000000000000e+00,0.000000000000000e+00,0.000000000000000e+00,0.000000000000000e+00,
282,-3.717594936702093e-02,-1.000000000000000e-04,-8.557453933573970e-06,1.179893510707579e-03,0.000000000000000e+00,0.000000000000000e+00,0.000000000000000e+00,0.000000000000000e+00,
283,-3.804050632904932e-02,-1.000000000000000e-04,-8.602895740254237e-06,1.160567773999742e-03,0.000000000000000e+00,0.000000000000000e+00,0.000000000000000e+00,0.000000000000000e+00,
284,-3.890506329107773e-02,-1.000000000000000e-04,-8.633299211633653e-06,1.140548240288407e-03,0.000000000000000e+00,0.000000000000000e+00,0.000000000000000e+00,0.000000000000000e+00,
285,-3.976962025310612e-02,-1.000000000000000e-04,-8.647821087982731e-06,1.119826367332184e-03,0.000000000000000e+00,0.000000000000000e+00,0.000000000000000e+00,0.000000000000000e+00,
286,-4.063417721513453e-02,-1.000000000000000e-04,-8.645589700080788e-06,1.098393065719638e-03,0.000000000000000e+00,0.000000000000000e+00,0.000000000000000e+00,0.000000000000000e+00,
287,-4.149873417716293e-02,-1.000000000000000e-04,-8.625716901480376e-06,1.076238633887353e-03,0.000000000000000e+00,0.000000000000000e+00,0.000000000000000e+00,0.000000000000000e+00,
288,-4.236329113919133e-02,-1.000000000000000e-04,-8.587300783481559e-06,1.053353182379056e-03,0.000000000000000e+00,0.000000000000000e+00,0.000000000000000e+00,0.000000000000000e+00,
289,-4.322784810121974e-02,-1.000000000000000e-04,-8.529380836150893e-06,1.029726371668725e-03,0.000000000000000e+00,0.000000000000000e+00,0.000000000000000e+00,0.000000000000000e+00,
290,-4.409240506324814e-02,-1.000000000000000e-04,-8.450865667360637e-06,1.005347186107602e-03,0.000000000000000e+00,0.000000000000000e+00,0.000000000000000e+00,0.000000000000000e+00,
291,-4.495696202527653e-02,-1.000000000000000e-04,-8.350688048355378e-06,9.802033011246985e-04,0.000000000000000e+00,0.000000000000000e+00,0.000000000000000e+00,0.000000000000000e+00,
292,-4.582151898730494e-02,-1.000000000000000e-04,-8.227870982922464e-06,9.542828543351032e-04,0.000000000000000e+00,0.000000000000000e+00,0.000000000000000e+00,0.000000000000000e+00,
293,-4.668607594933333e-02,-1.000000000000000e-04,-8.081269937123545e-06,9.275739184379649e-04,0.000000000000000e+00,0.000000000000000e+00,0.000000000000000e+00,0.000000000000000e+00,
294,-4.755063291136175e-02,-1.000000000000000e-04,-7.909591892862432e-06,9.000635824887848e-04,0.000000000000000e+00,0.000000000000000e+00,0.000000000000000e+00,0.000000000000000e+00,
295,-4.841518987339014e-02,-1.000000000000000e-04,-7.711564588071140e-06,8.717376998704740e-04,0.000000000000000e+00,0.000000000000000e+00,0.000000000000000e+00,0.000000000000000e+00,
296,-4.927974683541853e-02,-1.000000000000000e-04,-7.486000713585420e-06,8.425823424114587e-04,0.000000000000000e+00,0.000000000000000e+00,0.000000000000000e+00,0.000000000000000e+00,
297,-5.014430379744695e-02,-1.000000000000000e-04,-7.231574597930353e-06,8.125837521865379e-04,0.000000000000000e+00,0.000000000000000e+00,0.000000000000000e+00,0.000000000000000e+00,
298,-5.100886075947534e-02,-1.000000000000000e-04,-6.946870682531343e-06,7.817274297721745e-04,0.000000000000000e+00,0.000000000000000e+00,0.000000000000000e+00,0.000000000000000e+00,
299,-5.187341772150210e-02,-1.000000000000000e-04,-6.630394572097241e-06,7.499984813687114e-04,0.000000000000000e+00,0.000000000000000e+00,0.000000000000000e+00,0.000000000000000e+00,
300,-5.273797468352830e-02,-1.000000000000000e-04,-6.280448806489643e-06,7.173807889167693e-04,0.000000000000000e+00,0.000000000000000e+00,0.000000000000000e+00,0.000000000000000e+00,
301,-5.360253164555451e-02,-1.000000000000000e-04,-5.895279141262617e-06,6.838566635734512e-04,0.000000000000000e+00,0.000000000000000e+00,0.000000000000000e+00,0.000000000000000e+00,
302,-5.446708860758072e-02,-1.000000000000000e-04,-5.473100031351880e-06,6.494075574111232e-04,0.000000000000000e+00,0.000000000000000e+00,0.000000000000000e+00,0.000000000000000e+00,
303,-5.533164556960692e-02,-1.000000000000000e-04,-5.011976350406277e-06,6.140140410821123e-04,0.000000000000000e+00,0.000000000000000e+00,0.000000000000000e+00,0.000000000000000e+00,
304,-5.619620253163312e-02,-1.000000000000000e-04,-4.509841087737618e-06,5.776554514146277e-04,0.000000000000000e+00,0.000000000000000e+00,0.000000000000000e+00,0.000000000000000e+00,
305,-5.706075949365933e-02,-1.000000000000000e-04,-3.964484338838511e-06,5.403097819704781e-04,0.000000000000000e+00,0.000000000000000e+00,0.000000000000000e+00,0.000000000000000e+00,
306,-5.792531645568553e-02,-1.000000000000000e-04,-3.373414442897262e-06,5.019532193922586e-04,0.000000000000000e+00,0.000000000000000e+00,0.000000000000000e+00,0.000000000000000e+00,
307,-5.878987341771175e-02,-1.000000000000000e-04,-2.733965781204248e-06,4.625593659893640e-04,0.000000000000000e+00,0.000000000000000e+00,0.000000000000000e+00,0.000000000000000e+00,
308,-5.965443037973795e-02,-1.000000000000000e-04,-2.043131095306558e-06,4.220998296754823e-04,0.000000000000000e+00,0.000000000000000e+00,0.000000000000000e+00,0.000000000000000e+00,
309,-6.051898734176415e-02,-1.000000000000000e-04,-1.297788369455951e-06,3.805424700863207e-04,0.000000000000000e+00,0.000000000000000e+00,0.000000000000000e+00,0.000000000000000e+00,
310,-6.138354430379036e-02,-1.000000000000000e-04,-4.950849773631524e-07,3.378556656823114e-04,0.000000000000000e+00,0.000000000000000e+00,0.000000000000000e+00,0.000000000000000e+00,
311,-6.224810126581656e-02,-1.000000000000000e-04,3.674943139790652e-07,2.940098739679856e-04,0.000000000000000e+00,0.000000000000000e+00,0.000000000000000e+00,0.000000000000000e+00,
312,-6.311265822784276e-02,-1.000000000000000e-04,1.290124446555118e-06,2.489864408865334e-04,0.000000000000000e+00,0.000000000000000e+00,0.000000000000000e+00,0.000000000000000e+00,
313,-6.397721518986897e-02,-1.000000000000000e-04,2.265495380335481e-06,2.028067151221833e-04,0.000000000000000e+00,0.000000000000000e+00,0.000000000000000e+00,0.000000000000000e+00,
314,-6.484177215189517e-02,-1.000000000000000e-04,3.262210250141961e-06,1.556162639112454e-04,0.000000000000000e+00,0.000000000000000e+00,0.000000000000000e+00,0.000000000000000e+00,
315,-6.570632911392138e-02,-1.000000000000000e-04,4.184756822026226e-06,1.079387298122192e-04,0.000000000000000e+00,0.000000000000000e+00,0.000000000000000e+00,0.000000000000000e+00,
316,-6.657088607594758e-02,-1.000000000000000e-04,4.733318917420134e-06,6.134196275630943e-05,0.000000000000000e+00,0.000000000000000e+00,0.000000000000000e+00,0.000000000000000e+00,
317,-6.743544303797379e-02,-1.000000000000000e-04,4.076464682425544e-06,2.073641235812796e-05,0.000000000000000e+00,0.000000000000000e+00,0.000000000000000e+00,0.000000000000000e+00,
318,-6.830000000000000e-02,-1.694201419780161e-16,0.000000000000000e+00,0.000000000000000e+00,0.000000000000000e+00,0.000000000000000e+00,0.000000000000000e+00,0.000000000000000e+00,
319,0.000000000000000e+00,1.694201419780161e-16,2.598881423313816e-07,1.444953706707889e-03,0.000000000000000e+00,0.000000000000000e+00,0.000000000000000e+00,0.000000000000000e+00,
320,6.830000000000000e-02,1.694201419780161e-16,0.000000000000000e+00,0.000000000000000e+00,0.000000000000000e+00,0.000000000000000e+00,0.000000000000000e+00,0.000000000000000e+00,
321,-6.743544303797591e-02,-1.651307671331204e-16,1.232393710323346e-07,2.033844386287337e-05,0.000000000000000e+00,0.000000000000000e+00,0.000000000000000e+00,0.000000000000000e+00,
322,-6.657088607595177e-02,-1.608481685518026e-16,-4.321636389740479e-07,6.096111997841161e-05,0.000000000000000e+00,0.000000000000000e+00,0.000000000000000e+00,0.000000000000000e+00,
323,-6.570632911392765e-02,-1.565655699704849e-16,-1.299331793647985e-06,1.075213335617676e-04,0.000000000000000e+00,0.000000000000000e+00,0.000000000000000e+00,0.000000000000000e+00,
324,-6.484177215190354e-02,-1.522626425984330e-16,-2.223302227406944e-06,1.552036791046074e-04,0.000000000000000e+00,0.000000000000000e+00,0.000000000000000e+00,0.000000000000000e+00,
325,-6.397721518987942e-02,-1.479732677535373e-16,-3.123724708689741e-06,2.023981993420579e-04,0.000000000000000e+00,0.000000000000000e+00,0.000000000000000e+00,0.000000000000000e+00,
326,-6.311265822785532e-02,-1.436838929086415e-16,-3.970249577898373e-06,2.485851099053925e-04,0.000000000000000e+00,0.000000000000000e+00,0.000000000000000e+00,0.000000000000000e+00,
327,-6.224810126583120e-02,-1.393945180637457e-16,-4.757132530452426e-06,2.936155535057404e-04,0.000000000000000e+00,0.000000000000000e+00,0.000000000000000e+00,0.000000000000000e+00,
328,-6.138354430380710e-02,-1.351119194824280e-16,-5.484575421555785e-06,3.374682157182615e-04,0.000000000000000e+00,0.000000000000000e+00,0.000000000000000e+00,0.000000000000000e+00,
329,-6.051898734178297e-02,-1.308225446375322e-16,-6.155223462392042e-06,3.801615438607155e-04,0.000000000000000e+00,0.000000000000000e+00,0.000000000000000e+00,0.000000000000000e+00,
330,-5.965443037975886e-02,-1.265263935290584e-16,-6.772091352086225e-06,4.217250826313638e-04,0.000000000000000e+00,0.000000000000000e+00,0.000000000000000e+00,0.000000000000000e+00,
331,-5.878987341773474e-02,-1.222370186841626e-16,-7.338187511579326e-06,4.621904624706774e-04,0.000000000000000e+00,0.000000000000000e+00,0.000000000000000e+00,0.000000000000000e+00,
332,-5.792531645571064e-02,-1.179544201028448e-16,-7.856415492258394e-06,5.015898392482750e-04,0.000000000000000e+00,0.000000000000000e+00,0.000000000000000e+00,0.000000000000000e+00,
333,-5.706075949368652e-02,-1.136650452579491e-16,-8.329405197457789e-06,5.399516462717670e-04,0.000000000000000e+00,0.000000000000000e+00,0.000000000000000e+00,0.000000000000000e+00,
334,-5.619620253166239e-02,-1.093756704130533e-16,-8.759584964914166e-06,5.773022926016074e-04,0.000000000000000e+00,0.000000000000000e+00,0.000000000000000e+00,0.000000000000000e+00,
335,-5.533164556963828e-02,-1.050930718317356e-16,-9.149170361452064e-06,6.136656198906144e-04,0.000000000000000e+00,0.000000000000000e+00,0.000000000000000e+00,0.000000000000000e+00,
336,-5.446708860761418e-02,-1.007969207232617e-16,-9.500203016574154e-06,6.490636422830653e-04,0.000000000000000e+00,0.000000000000000e+00,0.000000000000000e+00,0.000000000000000e+00,
337,-5.360253164559006e-02,-9.650076961478793e-17,-9.814600824369259e-06,6.835170458060218e-04,0.000000000000000e+00,0.000000000000000e+00,0.000000000000000e+00,0.000000000000000e+00,
338,-5.273797468356593e-02,-9.221139476989215e-17,-1.009417336227697e-05,7.170452690410782e-04,0.000000000000000e+00,0.000000000000000e+00,0.000000000000000e+00,0.000000000000000e+00,
339,-5.187341772154182e-02,-8.793557245215244e-17,-1.034062096477358e-05,7.496668664782607e-04,0.000000000000000e+00,0.000000000000000e+00,0.000000000000000e+00,0.000000000000000e+00,
340,-5.100886075951717e-02,-8.364619760725667e-17,-1.055555616194298e-05,7.813995424718025e-04,0.000000000000000e+00,0.000000000000000e+00,0.000000000000000e+00,0.000000000000000e+00,
341,-5.014430379749086e-02,-7.935004649878286e-17,-1.074049205996785e-05,8.122594273337063e-04,0.000000000000000e+00,0.000000000000000e+00,0.000000000000000e+00,0.000000000000000e+00,
342,-4.927974683546454e-02,-7.505389539030904e-17,-1.089684353022213e-05,8.422614226635547e-04,0.000000000000000e+00,0.000000000000000e+00,0.000000000000000e+00,0.000000000000000e+00,
343,-4.841518987343824e-02,-7.076452054541327e-17,-1.102595927935716e-05,8.714200329984140e-04,0.000000000000000e+00,0.000000000000000e+00,0.000000000000000e+00,0.000000000000000e+00,
344,-4.755063291141194e-02,-6.648192196409553e-17,-1.112911944463115e-05,8.997490250501191e-04,0.000000000000000e+00,0.000000000000000e+00,0.000000000000000e+00,0.000000000000000e+00,
345,-4.668607594938563e-02,-6.219254711919975e-17,-1.120756731956677e-05,9.272623304576293e-04,0.000000000000000e+00,0.000000000000000e+00,0.000000000000000e+00,0.000000000000000e+00,
346,-4.582151898735930e-02,-5.790317227430397e-17,-1.126251322473330e-05,9.539740981304070e-04,0.000000000000000e+00,0.000000000000000e+00,0.000000000000000e+00,0.000000000000000e+00,
347,-4.495696202533300e-02,-5.361379742940819e-17,-1.129509430819631e-05,9.798972505291712e-04,0.000000000000000e+00,0.000000000000000e+00,0.000000000000000e+00,0.000000000000000e+00,
348,-4.409240506330669e-02,-4.932442258451242e-17,-1.130638829293851e-05,1.005043722604399e-03,0.000000000000000e+00,0.000000000000000e+00,0.000000000000000e+00,0.000000000000000e+00,
349,-4.322784810128039e-02,-4.503504773961664e-17,-1.129743146507882e-05,1.029425376568678e-03,0.000000000000000e+00,0.000000000000000e+00,0.000000000000000e+00,0.000000000000000e+00,
350,-4.236329113925408e-02,-4.073889663114283e-17,-1.126923928385103e-05,1.053054541856167e-03,0.000000000000000e+00,0.000000000000000e+00,0.000000000000000e+00,0.000000000000000e+00,
351,-4.149873417722776e-02,-3.645968618161410e-17,-1.122276177402095e-05,1.075942240658643e-03,0.000000000000000e+00,0.000000000000000e+00,0.000000000000000e+00,0.000000000000000e+00,
352,-4.063417721520145e-02,-3.217031133671833e-17,-1.115890381008252e-05,1.098098819672563e-03,0.000000000000000e+00,0.000000000000000e+00,0.000000000000000e+00,0.000000000000000e+00,
353,-3.976962025317514e-02,-2.788093649182255e-17,-1.107853630332207e-05,1.119534169790222e-03,0.000000000000000e+00,0.000000000000000e+00,0.000000000000000e+00,0.000000000000000e+00,
354,-3.890506329114883e-02,-2.358139725155972e-17,-1.098250279719132e-05,1.140257997968690e-03,0.000000000000000e+00,0.000000000000000e+00,0.000000000000000e+00,0.000000000000000e+00,
355,-3.804050632912252e-02,-1.929541053845296e-17,-1.087160748652648e-05,1.160279399453059e-03,0.000000000000000e+00,0.000000000000000e+00,0.000000000000000e+00,0.000000000000000e+00,
356,-3.717594936709621e-02,-1.500603569355718e-17,-1.074660453871910e-05,1.179606912246747e-03,0.000000000000000e+00,0.000000000000000e+00,0.000000000000000e+00,0.000000000000000e+00,
357,-3.631139240506990e-02,-1.072004898045043e-17,-1.060821033476658e-05,1.198248288769305e-03,0.000000000000000e+00,0.000000000000000e+00,0.000000000000000e+00,0.000000000000000e+00,
358,-3.544683544304358e-02,-6.434062267343665e-18,-1.045713585291681e-05,1.216211402960672e-03,0.000000000000000e+00,0.000000000000000e+00,0.000000000000000e+00,0.000000000000000e+00,
359,-3.458227848101728e-02,-2.141299290658871e-18,-1.029406382363811e-05,1.233503845557781e-03,0.000000000000000e+00,0.000000000000000e+00,0.000000000000000e+00,0.000000000000000e+00,
360,-3.371772151899097e-02,2.137911158869854e-18,-1.011965067415722e-05,1.250132957048529e-03,0.000000000000000e+00,0.000000000000000e+00,0.000000000000000e+00,0.000000000000000e+00,
361,-3.285316455696466e-02,6.430674135554648e-18,-9.934531587813004e-06,1.266105619379368e-03,0.000000000000000e+00,0.000000000000000e+00,0.000000000000000e+00,0.000000000000000e+00,
362,-3.198860759493835e-02,1.072004898045043e-17,-9.739320517084656e-06,1.281428427768181e-03,0.000000000000000e+00,0.000000000000000e+00,0.000000000000000e+00,0.000000000000000e+00,
363,-3.112405063291204e-02,1.500942382534620e-17,-9.534613354283142e-06,1.296108024395342e-03,0.000000000000000e+00,0.000000000000000e+00,0.000000000000000e+00,0.000000000000000e+00,
364,-3.025949367088573e-02,1.929879867024198e-17,-9.320989859026733e-06,1.310150941662472e-03,0.000000000000000e+00,0.000000000000000e+00,0.000000000000000e+00,0.000000000000000e+00,
365,-2.939493670885943e-02,2.359156164692677e-17,-9.099016638420600e-06,1.323563739211408e-03,0.000000000000000e+00,0.000000000000000e+00,0.000000000000000e+00,0.000000000000000e+00,
366,-2.853037974683311e-02,2.787754836003353e-17,-8.869245775999593e-06,1.336353195864347e-03,0.000000000000000e+00,0.000000000000000e+00,0.000000000000000e+00,0.000000000000000e+00,
367,-2.766582278480680e-02,3.216692320492931e-17,-8.632195782243544e-06,1.348525329319320e-03,0.000000000000000e+00,0.000000000000000e+00,0.000000000000000e+00,0.000000000000000e+00,
368,-2.680126582278049e-02,3.645629804982509e-17,-8.388368566110957e-06,1.360085783941955e-03,0.000000000000000e+00,0.000000000000000e+00,0.000000000000000e+00,0.000000000000000e+00,
369,-2.593670886075418e-02,4.074567289472086e-17,-8.138260046331427e-06,1.371040055518193e-03,0.000000000000000e+00,0.000000000000000e+00,0.000000000000000e+00,0.000000000000000e+00,
370,-2.507215189872787e-02,4.503504773961664e-17,-7.882359576189018e-06,1.381393823547627e-03,0.000000000000000e+00,0.000000000000000e+00,0.000000000000000e+00,0.000000000000000e+00,
371,-2.420759493670156e-02,4.932781071630143e-17,-7.621145417213165e-06,1.391152789226032e-03,0.000000000000000e+00,0.000000000000000e+00,0.000000000000000e+00,0.000000000000000e+00,
372,-2.334303797467526e-02,5.360702116583016e-17,-7.355086531817501e-06,1.400323168307984e-03,0.000000000000000e+00,0.000000000000000e+00,0.000000000000000e+00,0.000000000000000e+00,
373,-2.247848101264894e-02,5.789639601072594e-17,-7.084634511092884e-06,1.408910998078479e-03,0.000000000000000e+00,0.000000000000000e+00,0.000000000000000e+00,0.000000000000000e+00,
374,-2.161392405062263e-02,6.218915898741073e-17,-6.810230315302626e-06,1.416922063941550e-03,0.000000000000000e+00,0.000000000000000e+00,0.000000000000000e+00,0.000000000000000e+00,
375,-2.074936708859633e-02,6.647853383230651e-17,-6.532303960713386e-06,1.424361676900018e-03,0.000000000000000e+00,0.000000000000000e+00,0.000000000000000e+00,0.000000000000000e+00,
376,-1.988481012657001e-02,7.076960274309679e-17,-6.251276284957523e-06,1.431235284413575e-03,0.000000000000000e+00,0.000000000000000e+00,0.000000000000000e+00,0.000000000000000e+00,
377,-1.902025316454370e-02,7.506236571978159e-17,-5.967555607207913e-06,1.437548325903733e-03,0.000000000000000e+00,0.000000000000000e+00,0.000000000000000e+00,0.000000000000000e+00,
378,-1.815569620251739e-02,7.933988210341580e-17,-5.681540956304994e-06,1.443306495493654e-03,0.000000000000000e+00,0.000000000000000e+00,0.000000000000000e+00,0.000000000000000e+00,
379,-1.729113924049109e-02,8.363603321188962e-17,-5.393617975907354e-06,1.448515263047001e-03,0.000000000000000e+00,0.000000000000000e+00,0.000000000000000e+00,0.000000000000000e+00,
380,-1.642658227846611e-02,8.792710212267990e-17,-5.104158722659021e-06,1.453179982973707e-03,0.000000000000000e+00,0.000000000000000e+00,0.000000000000000e+00,0.000000000000000e+00,
381,-1.556202531644157e-02,9.221478290168117e-17,-4.813520985522950e-06,1.457305824588449e-03,0.000000000000000e+00,0.000000000000000e+00,0.000000000000000e+00,0.000000000000000e+00,
382,-1.469746835441705e-02,9.651093401015498e-17,-4.522053190829445e-06,1.460897771369921e-03,0.000000000000000e+00,0.000000000000000e+00,0.000000000000000e+00,0.000000000000000e+00,
383,-1.383291139239251e-02,1.008070851186288e-16,-4.230099112907604e-06,1.463960823487837e-03,0.000000000000000e+00,0.000000000000000e+00,0.000000000000000e+00,0.000000000000000e+00,
384,-1.296835443036798e-02,1.050761311727905e-16,-3.937995860215941e-06,1.466500122574165e-03,0.000000000000000e+00,0.000000000000000e+00,0.000000000000000e+00,0.000000000000000e+00,
385,-1.210379746834345e-02,1.093773644789478e-16,-3.646071119202749e-06,1.468520540207293e-03,0.000000000000000e+00,0.000000000000000e+00,0.000000000000000e+00,0.000000000000000e+00,
386,-1.123924050631891e-02,1.136582689943710e-16,-3.354640713700516e-06,1.470026887259405e-03,0.000000000000000e+00,0.000000000000000e+00,0.000000000000000e+00,0.000000000000000e+00,
387,-1.037468354429438e-02,1.179484908722141e-16,-3.064012802990072e-06,1.471023768084373e-03,0.000000000000000e+00,0.000000000000000e+00,0.000000000000000e+00,0.000000000000000e+00,
388,-9.510126582269851e-03,1.222454890136351e-16,-2.774492085839052e-06,1.471515897039386e-03,0.000000000000000e+00,0.000000000000000e+00,0.000000000000000e+00,0.000000000000000e+00,
389,-8.645569620245319e-03,1.265246994631639e-16,-2.486375312181478e-06,1.471508252137996e-03,0.000000000000000e+00,0.000000000000000e+00,0.000000000000000e+00,0.000000000000000e+00,
390,-7.781012658220791e-03,1.308140743080596e-16,-2.199944604102452e-06,1.471005728510266e-03,0.000000000000000e+00,0.000000000000000e+00,0.000000000000000e+00,0.000000000000000e+00,
391,-6.916455696196257e-03,1.350966728893774e-16,-1.915470030808167e-06,1.470013094706226e-03,0.000000000000000e+00,0.000000000000000e+00,0.000000000000000e+00,0.000000000000000e+00,
392,-6.051898734171725e-03,1.393919769649039e-16,-1.633212030416248e-06,1.468534928551858e-03,0.000000000000000e+00,0.000000000000000e+00,0.000000000000000e+00,0.000000000000000e+00,
393,-5.187341772147186e-03,1.436817753262733e-16,-1.353424543910858e-06,1.466575732275907e-03,0.000000000000000e+00,0.000000000000000e+00,0.000000000000000e+00,0.000000000000000e+00,
394,-4.322784810122660e-03,1.479758088523790e-16,-1.076357486842342e-06,1.464139742473305e-03,0.000000000000000e+00,0.000000000000000e+00,0.000000000000000e+00,0.000000000000000e+00,
395,-3.458227848098131e-03,1.522711129279056e-16,-8.022528697091490e-07,1.461231143916059e-03,0.000000000000000e+00,0.000000000000000e+00,0.000000000000000e+00,0.000000000000000e+00,
396,-2.593670886073597e-03,1.565397354655936e-16,-5.313470157168411e-07,1.457854022361538e-03,0.000000000000000e+00,0.000000000000000e+00,0.000000000000000e+00,0.000000000000000e+00,
397,-1.729113924049062e-03,1.608360983323042e-16,-2.638721948433943e-07,1.454012556458720e-03,0.000000000000000e+00,0.000000000000000e+00,0.000000000000000e+00,0.000000000000000e+00,
398,-8.645569620245347e-04,1.651303436166467e-16,-5.370221460798365e-11,1.449711085500086e-03,0.000000000000000e+00,0.000000000000000e+00,0.000000000000000e+00,0.000000000000000e+00,
399,8.645569620245343e-04,1.694201419780161e-16,5.157350485691079e-07,1.439744426619695e-03,0.000000000000000e+00,0.000000000000000e+00,0.000000000000000e+00,0.000000000000000e+00,
400,1.729113924049062e-03,1.694133657144381e-16,7.672752805679485e-07,1.434087340650453e-03,0.000000000000000e+00,0.000000000000000e+00,0.000000000000000e+00,0.000000000000000e+00,
401,2.593670886073597e-03,1.694201419780161e-16,1.014306556627865e-06,1.427986513310562e-03,0.000000000000000e+00,0.000000000000000e+00,0.000000000000000e+00,0.000000000000000e+00,
402,3.458227848098130e-03,1.694269182415942e-16,1.256634827027789e-06,1.421446114321999e-03,0.000000000000000e+00,0.000000000000000e+00,0.000000000000000e+00,0.000000000000000e+00,
403,4.322784810122658e-03,1.694269182415942e-16,1.494074497969110e-06,1.414470215830308e-03,0.000000000000000e+00,0.000000000000000e+00,0.000000000000000e+00,0.000000000000000e+00,
404,5.187341772147188e-03,1.694201419780161e-16,1.726448493348083e-06,1.407062672524175e-03,0.000000000000000e+00,0.000000000000000e+00,0.000000000000000e+00,0.000000000000000e+00,
405,6.051898734171726e-03,1.694201419780161e-16,1.953582359050761e-06,1.399227192630529e-03,0.000000000000000e+00,0.000000000000000e+00,0.000000000000000e+00,0.000000000000000e+00,
406,6.916455696196254e-03,1.694201419780161e-16,2.175304505571434e-06,1.390967455067824e-03,0.000000000000000e+00,0.000000000000000e+00,0.000000000000000e+00,0.000000000000000e+00,
407,7.781012658220791e-03,1.694065894508601e-16,2.391451045611722e-06,1.382287265473456e-03,0.000000000000000e+00,0.000000000000000e+00,0.000000000000000e+00,0.000000000000000e+00,
408,8.645569620245323e-03,1.694269182415942e-16,2.601863376153516e-06,1.373190413946704e-03,0.000000000000000e+00,0.000000000000000e+00,0.000000000000000e+00,0.000000000000000e+00,
409,9.510126582269848e-03,1.694201419780161e-16,2.806387118761383e-06,1.363680704174788e-03,0.000000000000000e+00,0.000000000000000e+00,0.000000000000000e+00,0.000000000000000e+00,
410,1.037468354429439e-02,1.694201419780161e-16,3.004868377568971e-06,1.353761908211867e-03,0.000000000000000e+00,0.000000000000000e+00,0.000000000000000e+00,0.000000000000000e+00,
411,1.123924050631891e-02,1.694133657144381e-16,3.197158376008620e-06,1.343438082176219e-03,0.000000000000000e+00,0.000000000000000e+00,0.000000000000000e+00,0.000000000000000e+00,
412,1.210379746834346e-02,1.694133657144381e-16,3.383118114423075e-06,1.332713402236148e-03,0.000000000000000e+00,0.000000000000000e+00,0.000000000000000e+00,0.000000000000000e+00,
413,1.296835443036798e-02,1.694133657144381e-16,3.562615938219996e-06,1.321591866056310e-03,0.000000000000000e+00,0.000000000000000e+00,0.000000000000000e+00,0.000000000000000e+00,
414,1.383291139239251e-02,1.694201419780161e-16,3.735524348876052e-06,1.310077419334099e-03,0.000000000000000e+00,0.000000000000000e+00,0.000000000000000e+00,0.000000000000000e+00,
415,1.469746835441705e-02,1.694269182415942e-16,3.901719430659627e-06,1.298174025164875e-03,0.000000000000000e+00,0.000000000000000e+00,0.000000000000000e+00,0.000000000000000e+00,
416,1.556202531644158e-02,1.694201419780161e-16,4.061088278389601e-06,1.285885929414774e-03,0.000000000000000e+00,0.000000000000000e+00,0.000000000000000e+00,0.000000000000000e+00,
417,1.642658227846611e-02,1.694201419780161e-16,4.213527528515281e-06,1.273217313916164e-03,0.000000000000000e+00,0.000000000000000e+00,0.000000000000000e+00,0.000000000000000e+00,
418,1.729113924049109e-02,1.694133657144381e-16,4.358936720775385e-06,1.260172186069066e-03,0.000000000000000e+00,0.000000000000000e+00,0.000000000000000e+00,0.000000000000000e+00,
419,1.815569620251740e-02,1.694133657144381e-16,4.497217141262388e-06,1.246754501547252e-03,0.000000000000000e+00,0.000000000000000e+00,0.000000000000000e+00,0.000000000000000e+00,
420,1.902025316454371e-02,1.694336945051722e-16,4.628271368030418e-06,1.232968174960311e-03,0.000000000000000e+00,0.000000000000000e+00,0.000000000000000e+00,0.000000000000000e+00,
421,1.988481012657002e-02,1.694201419780161e-16,4.752004931398281e-06,1.218817195609019e-03,0.000000000000000e+00,0.000000000000000e+00,0.000000000000000e+00,0.000000000000000e+00,
422,2.074936708859632e-02,1.694201419780161e-16,4.868334354666084e-06,1.204305830793287e-03,0.000000000000000e+00,0.000000000000000e+00,0.000000000000000e+00,0.000000000000000e+00,
423,2.161392405062264e-02,1.694269182415942e-16,4.977182408976862e-06,1.189438291901094e-03,0.000000000000000e+00,0.000000000000000e+00,0.000000000000000e+00,0.000000000000000e+00,
424,2.247848101264895e-02,1.694133657144381e-16,5.078476045612856e-06,1.174218746008665e-03,0.000000000000000e+00,0.000000000000000e+00,0.000000000000000e+00,0.000000000000000e+00,
425,2.334303797467525e-02,1.694201419780161e-16,5.172141780058033e-06,1.158651128224181e-03,0.000000000000000e+00,0.000000000000000e+00,0.000000000000000e+00,0.000000000000000e+00,
426,2.420759493670156e-02,1.694269182415942e-16,5.258114458867727e-06,1.142739474484944e-03,0.000000000000000e+00,0.000000000000000e+00,0.000000000000000e+00,0.000000000000000e+00,
427,2.507215189872787e-02,1.694269182415942e-16,5.336335173605058e-06,1.126487821148493e-03,0.000000000000000e+00,0.000000000000000e+00,0.000000000000000e+00,0.000000000000000e+00,
428,2.593670886075418e-02,1.694201419780161e-16,5.406752503210001e-06,1.109900381227454e-03,0.000000000000000e+00,0.000000000000000e+00,0.000000000000000e+00,0.000000000000000e+00,
429,2.680126582278049e-02,1.694201419780161e-16,5.469317453795548e-06,1.092981263754757e-03,0.000000000000000e+00,0.000000000000000e+00,0.000000000000000e+00,0.000000000000000e+00,
430,2.766582278480680e-02,1.694167538462271e-16,5.523986938870287e-06,1.075734684684967e-03,0.000000000000000e+00,0.000000000000000e+00,0.000000000000000e+00,0.000000000000000e+00,
431,2.853037974683311e-02,1.694201419780161e-16,5.570720411341893e-06,1.058164729399899e-03,0.000000000000000e+00,0.000000000000000e+00,0.000000000000000e+00,0.000000000000000e+00,
432,2.939493670885942e-02,1.694235301098052e-16,5.609481157825941e-06,1.040275333565206e-03,0.000000000000000e+00,0.000000000000000e+00,0.000000000000000e+00,0.000000000000000e+00,
433,3.025949367088573e-02,1.694235301098052e-16,5.640233934467374e-06,1.022070380718272e-03,0.000000000000000e+00,0.000000000000000e+00,0.000000000000000e+00,0.000000000000000e+00,
434,3.112405063291204e-02,1.694201419780161e-16,5.662954940674800e-06,1.003554200508711e-03,0.000000000000000e+00,0.000000000000000e+00,0.000000000000000e+00,0.000000000000000e+00,
435,3.198860759493835e-02,1.694235301098052e-16,5.677627349691656e-06,9.847311213360618e-04,0.000000000000000e+00,0.000000000000000e+00,0.000000000000000e+00,0.000000000000000e+00,
436,3.285316455696465e-02,1.694201419780161e-16,5.684236005046108e-06,9.656052899932131e-04,0.000000000000000e+00,0.000000000000000e+00,0.000000000000000e+00,0.000000000000000e+00,
437,3.371772151899098e-02,1.694167538462271e-16,5.682764612668937e-06,9.461806836593418e-04,0.000000000000000e+00,0.000000000000000e+00,0.000000000000000e+00,0.000000000000000e+00,
438,3.458227848101728e-02,1.694201419780161e-16,5.673197357688514e-06,9.264612091725369e-04,0.000000000000000e+00,0.000000000000000e+00,0.000000000000000e+00,0.000000000000000e+00,
439,3.544683544304360e-02,1.694167538462271e-16,5.655526578216996e-06,9.064509044385703e-04,0.000000000000000e+00,0.000000000000000e+00,0.000000000000000e+00,0.000000000000000e+00,
440,3.631139240506991e-02,1.694201419780161e-16,5.629750339996822e-06,8.861538438129750e-04,0.000000000000000e+00,0.000000000000000e+00,0.000000000000000e+00,0.000000000000000e+00,
441,3.717594936709621e-02,1.694201419780161e-16,5.595869886853725e-06,8.655741832591811e-04,0.000000000000000e+00,0.000000000000000e+00,0.000000000000000e+00,0.000000000000000e+00,
442,3.804050632912253e-02,1.694201419780161e-16,5.553898538290080e-06,8.447163277778519e-04,0.000000000000000e+00,0.000000000000000e+00,0.000000000000000e+00,0.000000000000000e+00,
443,3.890506329114882e-02,1.694235301098052e-16,5.503848335964490e-06,8.235843458204350e-04,0.000000000000000e+00,0.000000000000000e+00,0.000000000000000e+00,0.000000000000000e+00,
444,3.976962025317514e-02,1.694167538462271e-16,5.445732582864833e-06,8.021823882459759e-04,0.000000000000000e+00,0.000000000000000e+00,0.000000000000000e+00,0.000000000000000e+00,
445,4.063417721520145e-02,1.694201419780161e-16,5.379571672247616e-06,7.805148366379155e-04,0.000000000000000e+00,0.000000000000000e+00,0.000000000000000e+00,0.000000000000000e+00,
446,4.149873417722777e-02,1.694201419780161e-16,5.305394190793389e-06,7.585861717419669e-04,0.000000000000000e+00,0.000000000000000e+00,0.000000000000000e+00,0.000000000000000e+00,
447,4.236329113925407e-02,1.694235301098052e-16,5.223231423862360e-06,7.364007590690860e-04,0.000000000000000e+00,0.000000000000000e+00,0.000000000000000e+00,0.000000000000000e+00,
448,4.322784810128039e-02,1.694167538462271e-16,5.133115323354928e-06,7.139628023045232e-04,0.000000000000000e+00,0.000000000000000e+00,0.000000000000000e+00,0.000000000000000e+00,
449,4.409240506330669e-02,1.694201419780161e-16,5.035080451956016e-06,6.912764855300504e-04,0.000000000000000e+00,0.000000000000000e+00,0.000000000000000e+00,0.000000000000000e+00,
450,4.495696202533300e-02,1.694167538462271e-16,4.929176264260061e-06,6.683463886485062e-04,0.000000000000000e+00,0.000000000000000e+00,0.000000000000000e+00,0.000000000000000e+00,
451,4.582151898735931e-02,1.694167538462271e-16,4.815457352199493e-06,6.451771348642487e-04,0.000000000000000e+00,0.000000000000000e+00,0.000000000000000e+00,0.000000000000000e+00,
452,4.668607594938561e-02,1.694201419780161e-16,4.693979365037509e-06,6.217732954166999e-04,0.000000000000000e+00,0.000000000000000e+00,0.000000000000000e+00,0.000000000000000e+00,
453,4.755063291141193e-02,1.694218360439106e-16,4.564797943361413e-06,5.981393441015965e-04,0.000000000000000e+00,0.000000000000000e+00,0.000000000000000e+00,0.000000000000000e+00,
454,4.841518987343824e-02,1.694218360439106e-16,4.427975613819966e-06,5.742798762813565e-04,0.000000000000000e+00,0.000000000000000e+00,0.000000000000000e+00,0.000000000000000e+00,
455,4.927974683546454e-02,1.694320004392777e-16,4.283574858132233e-06,5.501993932409434e-04,0.000000000000000e+00,0.000000000000000e+00,0.000000000000000e+00,0.000000000000000e+00,
456,5.014430379749087e-02,1.694150597803326e-16,4.131664620150823e-06,5.259025237413250e-04,0.000000000000000e+00,0.000000000000000e+00,0.000000000000000e+00,0.000000000000000e+00,
457,5.100886075951716e-02,1.694150597803326e-16,3.972318273510625e-06,5.013939688887979e-04,0.000000000000000e+00,0.000000000000000e+00,0.000000000000000e+00,0.000000000000000e+00,
458,5.187341772154185e-02,1.694218360439106e-16,3.805613646205347e-06,4.766785468417127e-04,0.000000000000000e+00,0.000000000000000e+00,0.000000000000000e+00,0.000000000000000e+00,
459,5.273797468356593e-02,1.694218360439106e-16,3.631639130104555e-06,4.517611886634769e-04,0.000000000000000e+00,0.000000000000000e+00,0.000000000000000e+00,0.000000000000000e+00,
460,5.360253164559006e-02,1.694218360439106e-16,3.450485860736141e-06,4.266466728063385e-04,0.000000000000000e+00,0.000000000000000e+00,0.000000000000000e+00,0.000000000000000e+00,
461,5.446708860761418e-02,1.694218360439106e-16,3.262241811718778e-06,4.013396319821998e-04,0.000000000000000e+00,0.000000000000000e+00,0.000000000000000e+00,0.000000000000000e+00,
462,5.533164556963831e-02,1.694201419780161e-16,3.066996925359071e-06,3.758447501863742e-04,0.000000000000000e+00,0.000000000000000e+00,0.000000000000000e+00,0.000000000000000e+00,
463,5.619620253166239e-02,1.694133657144381e-16,2.864849482869146e-06,3.501667983622269e-04,0.000000000000000e+00,0.000000000000000e+00,0.000000000000000e+00,0.000000000000000e+00,
464,5.706075949368652e-02,1.694184479121216e-16,2.655896418723697e-06,3.243104426407285e-04,0.000000000000000e+00,0.000000000000000e+00,0.000000000000000e+00,0.000000000000000e+00,
465,5.792531645571063e-02,1.694184479121216e-16,2.440240591718659e-06,2.982805964185132e-04,0.000000000000000e+00,0.000000000000000e+00,0.000000000000000e+00,0.000000000000000e+00,
466,5.878987341773474e-02,1.694201419780161e-16,2.217998004175380e-06,2.720824369969618e-04,0.000000000000000e+00,0.000000000000000e+00,0.000000000000000e+00,0.000000000000000e+00,
467,5.965443037975887e-02,1.694243771427524e-16,1.989282551859357e-06,2.457210193825840e-04,0.000000000000000e+00,0.000000000000000e+00,0.000000000000000e+00,0.000000000000000e+00,
468,6.051898734178298e-02,1.694167538462271e-16,1.754230115068133e-06,2.192020016057323e-04,0.000000000000000e+00,0.000000000000000e+00,0.000000000000000e+00,0.000000000000000e+00,
469,6.138354430380709e-02,1.694167538462271e-16,1.513004498020794e-06,1.925321598819838e-04,0.000000000000000e+00,0.000000000000000e+00,0.000000000000000e+00,0.000000000000000e+00,
470,6.224810126583119e-02,1.694176008791744e-16,1.265899364141045e-06,1.657211080177897e-04,0.000000000000000e+00,0.000000000000000e+00,0.000000000000000e+00,0.000000000000000e+00,
471,6.311265822785531e-02,1.694214125274370e-16,1.013327025583683e-06,1.387857071631492e-04,0.000000000000000e+00,0.000000000000000e+00,0.000000000000000e+00,0.000000000000000e+00,
472,6.397721518987944e-02,1.694222595603843e-16,7.567941463599340e-07,1.117652966510226e-04,0.000000000000000e+00,0.000000000000000e+00,0.000000000000000e+00,0.000000000000000e+00,
473,6.484177215190352e-02,1.694201419780161e-16,4.986130122518900e-07,8.476476029535765e-05,0.000000000000000e+00,0.000000000000000e+00,0.000000000000000e+00,0.000000000000000e+00,
474,6.570632911392765e-02,1.694078600002809e-16,2.509060393307796e-07,5.808107798087154e-05,0.000000000000000e+00,0.000000000000000e+00,0.000000000000000e+00,0.000000000000000e+00,
475,6.657088607595177e-02,1.694188714285953e-16,3.109053874767215e-08,3.257512013771636e-05,0.000000000000000e+00,0.000000000000000e+00,0.000000000000000e+00,0.000000000000000e+00,
476,6.743544303797586e-02,1.694201419780161e-16,-7.622447695063457e-08,1.075349543239773e-05,0.000000000000000e+00,0.000000000000000e+00,0.000000000000000e+00,0.000000000000000e+00,
